 vasp.5.4.4.18Apr17-6-g9f103f2a35 (build Mar 26 2021 15:05:33) gamma-only

 executed on             LinuxIFC date 2022.01.31  14:06:41

 INCAR:
 POTCAR:   PAW_PBE Zn 06Sep2000
 POTCAR:   PAW_PBE Ge_d 06Sep2000
 POTCAR:    PAW_PBE P 17Jan2003
 POTCAR:   PAW_PBE Zn 06Sep2000
   VRHFIN =Zn: d10 p2

   TITEL  = PAW_PBE Zn 06Sep2000
   POMASS =   65.390; ZVAL   =   12.000    mass and valenz
   ENMAX  =  276.727; ENMIN  =  207.545 eV
   QCUT   =   -4.510; QGAM   =    9.020    optimization parameters

   Description
     l     E      TYP  RCUT    TYP  RCUT
     2   .000     23  2.300
     2   .000     23  2.300
     0   .000     23  2.300
     0   .000     23  2.300
     1  -.200     23  2.300
     1   .000     23  2.300
     3   .000      7   .000

 POTCAR:   PAW_PBE Ge_d 06Sep2000
   VRHFIN =Ge: 3d4s4p

   TITEL  = PAW_PBE Ge_d 06Sep2000
   POMASS =   72.610; ZVAL   =   14.000    mass and valenz
   ENMAX  =  287.568; ENMIN  =  215.676 eV
   QCUT   =   -4.597; QGAM   =    9.195    optimization parameters

[...]

 POTCAR:    PAW_PBE P 17Jan2003
   VRHFIN =P : s2p3

   TITEL  = PAW_PBE P 17Jan2003
   POMASS =   30.974; ZVAL   =    5.000    mass and valenz
   ENMAX  =  270.000; ENMIN  =  191.280 eV
   QCUT   =   -4.330; QGAM   =    8.659    optimization parameters

   Description
     l     E      TYP  RCUT    TYP  RCUT
     0   .000     23  1.900
     0   .000     23  1.900
     1   .000     23  1.900
     1   .000     23  1.900
     2   .000     23  1.900

 PAW_PBE Zn 06Sep2000                   :
 PAW_PBE Ge_d 06Sep2000                 :
  PAW_PBE P 17Jan2003                   :

 POSCAR: Zn47Ge49P96
  positions in direct lattice
  velocities in cartesian coordinates
 exchange correlation table for  LEXCH =        8
   RHO(1)=    0.500       N(1)  =     2000
   RHO(2)=  100.500       N(2)  =     4000

 ion  position               nearest neighbor table
   1  0.998  0.999  0.997- 120 2.34 186 2.35  99 2.36 173 2.36
   2  0.167  0.624  0.375- 128 2.36 101 2.37 127 2.37 102 2.37
   3  0.166  0.875  0.372- 102 2.36 100 2.37 103 2.37  97 2.38
   4  1.000  0.500  0.750- 172 2.37 105 2.37 107 2.37 170 2.37
   5  0.000  0.500  0.500- 128 2.36 107 2.37 165 2.37 178 2.37
   6  0.167  0.125  0.875- 120 2.36 109 2.36 119 2.37 110 2.37
   7  0.167  0.375  0.875- 105 2.37 108 2.37 111 2.37 110 2.37
   8  1.000  0.250  0.501- 180 2.36 178 2.36 113 2.37 115 2.37
   9  0.002  0.253  0.251- 189 2.34 115 2.35 162 2.36 112 2.36
  10  0.166  0.875  0.624- 118 2.36 103 2.37 117 2.37 104 2.37
  11  0.166  0.125  0.625- 118 2.36 113 2.37 119 2.37 116 2.37
  12  0.000  0.749  0.000- 121 2.36 123 2.36 188 2.37 186 2.37
  13  1.000  0.750  0.750- 181 2.36 170 2.37 104 2.37 123 2.37
  14  0.167  0.373  0.125- 125 2.37 126 2.37 111 2.37 112 2.37
  15  0.166  0.623  0.125- 126 2.37 124 2.37 121 2.37 127 2.37
  16  0.334  0.999  0.250- 131 2.36 129 2.36 100 2.37  98 2.37
  17  0.334  0.999  0.999- 152 2.36 122 2.36 109 2.37 131 2.37
  18  0.500  0.624  0.375- 133 2.36 134 2.37 160 2.37 159 2.37
  19  0.500  0.875  0.375- 134 2.37 135 2.37 129 2.37 132 2.37
  20  0.333  0.500  0.751- 139 2.36 106 2.36 137 2.36 108 2.37
  21  0.333  0.500  0.500- 139 2.37 101 2.37 160 2.37 114 2.37
  22  0.500  0.125  0.875- 152 2.36 151 2.36 142 2.37 141 2.37
  23  0.500  0.376  0.874- 140 2.36 137 2.36 142 2.36 143 2.36
  24  0.333  0.250  0.500- 114 2.36 145 2.37 147 2.37 116 2.37
  25  0.333  0.250  0.250- 125 2.37 144 2.37 147 2.37  98 2.37
  26  0.500  0.875  0.626- 136 2.36 135 2.37 149 2.37 150 2.37
  27  0.499  0.126  0.625- 148 2.36 145 2.37 150 2.37 151 2.37
  28  0.336  0.746  0.998- 122 2.35 155 2.35 124 2.36 153 2.37
  29  0.333  0.750  0.749- 136 2.37 117 2.37 106 2.37 155 2.37
  30  0.500  0.375  0.125- 157 2.36 158 2.36 143 2.37 144 2.37
  31  0.501  0.625  0.124- 153 2.36 156 2.37 159 2.37 158 2.37
  32  0.666  1.000  0.251- 130 2.36 132 2.36 161 2.37 163 2.37
  33  0.667  0.000  0.000- 184 2.37 141 2.37 154 2.37 163 2.37
  34  0.834  0.626  0.375- 191 2.36 166 2.37 192 2.37 165 2.37
  35  0.834  0.878  0.375- 167 2.36 161 2.37 166 2.37 164 2.38
  36  0.667  0.499  0.750- 138 2.36 171 2.36 140 2.36 169 2.37
  37  0.667  0.501  0.499- 133 2.37 192 2.37 171 2.37 146 2.37
  38  0.833  0.125  0.877- 184 2.37 183 2.37 174 2.37 173 2.37
  39  0.833  0.375  0.875- 172 2.37 169 2.37 174 2.37 175 2.37
  40  0.664  0.252  0.504- 179 2.35 146 2.35 177 2.36 148 2.37
  41  0.666  0.251  0.251- 157 2.36 179 2.36 176 2.37 130 2.37
  42  0.833  0.875  0.626- 181 2.36 168 2.37 182 2.37 167 2.37
  43  0.834  0.125  0.627- 183 2.37 177 2.37 180 2.37 182 2.37
  44  0.667  0.750  0.000- 187 2.36 156 2.37 154 2.37 185 2.37
  45  0.667  0.750  0.750- 138 2.37 168 2.37 149 2.37 187 2.37
  46  0.833  0.375  0.125- 189 2.36 176 2.36 190 2.37 175 2.37
  47  0.834  0.625  0.125- 191 2.36 188 2.37 190 2.37 185 2.37
  48  0.172  0.871  0.120-  99 2.32 122 2.33 100 2.34 121 2.34
  49  0.169  0.123  0.124- 109 2.33  99 2.34  98 2.34 112 2.35
  50  1.000  0.750  0.500- 165 2.34 104 2.34 167 2.34 102 2.34
  51  0.002  0.749  0.250- 102 2.34 191 2.34 121 2.34 164 2.34
  52  0.166  0.375  0.625- 108 2.34 113 2.34 107 2.34 114 2.34
  53  0.166  0.625  0.625- 101 2.34 104 2.34 107 2.34 106 2.34
  54  1.000  0.250  0.000- 110 2.34 175 2.34 112 2.34 173 2.34
  55  1.000  0.250  0.751- 183 2.34 172 2.34 110 2.34 113 2.34
  56  0.167  0.126  0.374- 115 2.34 116 2.34  98 2.34  97 2.36
  57  0.167  0.375  0.376- 128 2.34 114 2.34 125 2.34 115 2.34
  58  0.001  0.000  0.751- 118 2.34 120 2.35 181 2.35 183 2.35
  59  0.998  0.000  0.501- 167 2.34 118 2.34 180 2.34  97 2.34
  60  0.166  0.625  0.875- 106 2.34 123 2.34 124 2.34 105 2.34
[...]
 178  0.916  0.375  0.500-  84 2.34  89 2.34   8 2.36   5 2.37
 179  0.746  0.254  0.379-  88 2.33  89 2.34  40 2.35  41 2.36
 180  0.916  0.124  0.500-  59 2.34  88 2.34   8 2.36  43 2.37
 181  0.917  0.877  0.752-  93 2.34  58 2.35  42 2.36  13 2.36
 182  0.749  0.000  0.625-  90 2.34  91 2.34  42 2.37  43 2.37
 183  0.918  0.125  0.752-  55 2.34  58 2.35  43 2.37  38 2.37
 184  0.750  0.998  0.874-  93 2.34  90 2.34  33 2.37  38 2.37
 185  0.751  0.752  0.127-  80 2.34  83 2.34  47 2.37  44 2.37
 186  0.915  0.874  0.000-  80 2.34  93 2.34   1 2.35  12 2.37
 187  0.751  0.750  0.875-  93 2.34  92 2.34  44 2.36  45 2.37
 188  0.917  0.623  0.999-  92 2.34  63 2.34  12 2.37  47 2.37
 189  0.915  0.375  0.251-   9 2.34  62 2.35  89 2.35  46 2.36
 190  0.749  0.500  0.125-  94 2.34  95 2.34  46 2.37  47 2.37
 191  0.918  0.625  0.250-  51 2.34  62 2.34  34 2.36  47 2.36
 192  0.750  0.500  0.374-  94 2.34  89 2.34  34 2.37  37 2.37

  LATTYP: Found a base centered orthorhombic cell.
 ALAT       =    21.4900005599
 B/A-ratio  =     1.0177756885
 C/A-ratio  =     0.7633317623

  Lattice vectors:

 A1 = (   0.0000000000,  15.3313770000,   0.0000000000)
 A2 = (   0.0000000000,  -0.2701040000, -15.3289980000)
 A3 = ( -16.4040000000,   0.0000000000,   0.0000000000)

Analysis of symmetry for initial positions (statically):
 Subroutine PRICEL returns:
 Original cell was already a primitive cell.

 Routine SETGRP: Setting up the symmetry group for a
 base centered orthorhombic supercell.

 Subroutine GETGRP returns: Found  1 space group operations
 (whereof  1 operations were pure point group operations)
 out of a pool of  8 trial point group operations.

The static configuration has the point symmetry C_1 .

Analysis of symmetry for dynamics (positions and initial velocities):
 Subroutine PRICEL returns:
 Original cell was already a primitive cell.

[...]

The dynamic configuration has the point symmetry C_1 .

Analysis of structural, dynamic, and magnetic symmetry:
 Subroutine PRICEL returns:
 Original cell was already a primitive cell.

 Routine SETGRP: Setting up the symmetry group for a
 base centered orthorhombic supercell.

 Subroutine GETGRP returns: Found  1 space group operations
 (whereof  1 operations were pure point group operations)
 out of a pool of  8 trial point group operations.

The magnetic configuration has the point symmetry C_1 .

 Subroutine INISYM returns: Found  1 space group operations
 (whereof  1 operations are pure point group operations),
 and found     1 'primitive' translations

 KPOINTS: Generate by dasp

Automatic generation of k-mesh.
Space group operators:
 irot       det(A)        alpha          n_x          n_y          n_z        tau_x        tau_y        tau_z
    1     1.000000     0.000000     1.000000     0.000000     0.000000     0.000000     0.000000     0.000000

 Subroutine IBZKPT returns following result:

 Found      1 irreducible k-points:

 Following reciprocal coordinates:
            Coordinates               Weight
  0.000000  0.000000  0.000000      1.000000

 Following cartesian coordinates:
            Coordinates               Weight
  0.000000  0.000000  0.000000      1.000000

 Subroutine IBZKPT_HF returns following result:

 Found      1 k-points in 1st BZ
 the following      1 k-points will be used (e.g. in the exchange kernel)
 Following reciprocal coordinates:   # in IRBZ
  0.000000  0.000000  0.000000    1.00000000   1 t-inv F

 SYSTEM =  unknown system
 POSCAR =  Zn47Ge49P96

 Startparameter for this run:
   NWRITE =      2    write-flag & timer
   PREC   = accura    normal or accurate (medium, high low for compatibility)
   ISTART =      1    job   : 0-new  1-cont  2-samecut
   ICHARG =      1    charge: 1-file 2-atom 10-const
   ISPIN  =      2    spin polarized calculation?
   LNONCOLLINEAR =      F non collinear calculations
   LSORBIT =      F    spin-orbit coupling
   INIWAV =      1    electr: 0-lowe 1-rand  2-diag
   LASPH  =      F    aspherical Exc in radial PAW
   METAGGA=      F    non-selfconsistent MetaGGA calc.

 Electronic Relaxation 1
   ENCUT  =  373.0 eV  27.41 Ry    5.24 a.u.  25.83 24.14 24.14*2*pi/ulx,y,z
   ENINI  =  373.0     initial cutoff
   ENAUG  =  575.9 eV  augmentation charge cutoff
   NELM   =    200;   NELMIN=  2; NELMDL=  0     # of ELM steps
   EDIFF  = 0.1E-04   stopping-criterion for ELM
   LREAL  =      F    real-space projection
   NLSPLINE    = F    spline interpolate recip. space projectors
   LCOMPAT=      F    compatible to vasp.4.4
   GGA_COMPAT  = T    GGA compatible to vasp.4.4-vasp.4.6
   LMAXPAW     = -100 max onsite density
   LMAXMIX     =    2 max onsite mixed and CHGCAR
   VOSKOWN=      0    Vosko Wilk Nusair interpolation
   ROPT   =    0.00000   0.00000   0.00000
 Ionic relaxation
   EDIFFG = -.1E-01   stopping-criterion for IOM
   NSW    =      0    number of steps for IOM
   NBLOCK =      1;   KBLOCK =      1    inner block; outer block
   IBRION =     -1    ionic relax: 0-MD 1-quasi-New 2-CG
   NFREE  =      0    steps in history (QN), initial steepest desc. (CG)
   ISIF   =      0    stress and relaxation
   IWAVPR =     10    prediction:  0-non 1-charg 2-wave 3-comb
   ISYM   =      3    0-nonsym 1-usesym 2-fastsym
   LCORR  =      T    Harris-Foulkes like correction to forces

   POTIM  = 0.5000    time-step for ionic-motion
   TEIN   =    0.0    initial temperature
   TEBEG  =    0.0;   TEEND  =   0.0 temperature during run
   SMASS  =  -3.00    Nose mass-parameter (am)
[...]
   -.425E+01 0.209E+01 0.319E-01   0.411E+01 -.207E+01 0.157E+00   0.126E+00 -.228E-01 -.179E+00
   -.767E+01 0.586E+00 0.724E+00   0.750E+01 -.627E-03 -.466E+00   0.152E+00 -.572E+00 -.243E+00
   0.135E+00 0.180E+01 0.463E+01   -.197E+00 -.172E+01 -.461E+01   0.570E-01 -.706E-01 -.159E-01
   -.947E+00 0.413E-02 0.380E+01   0.750E+00 -.745E-01 -.375E+01   0.176E+00 0.665E-01 -.426E-01
   0.425E+01 -.637E-01 -.206E+01   -.411E+01 -.126E+00 0.204E+01   -.126E+00 0.183E+00 0.208E-01
   -.539E+00 0.122E+01 0.249E+01   0.470E+00 -.113E+01 -.249E+01   0.664E-01 -.850E-01 -.162E-02
   -.887E+00 -.110E+01 0.629E+00   0.899E+00 0.122E+01 -.612E+00   -.215E-01 -.118E+00 -.143E-01
   0.252E+01 0.325E+01 -.367E+01   -.261E+01 -.323E+01 0.363E+01   0.776E-01 -.913E-02 0.518E-01
   0.242E+01 -.180E+00 -.598E+01   -.225E+01 0.105E+00 0.597E+01   -.157E+00 0.663E-01 0.569E-02
   -.298E+01 -.375E+01 -.870E+00   0.301E+01 0.360E+01 0.762E+00   -.410E-01 0.136E+00 0.111E+00
   -.231E+00 -.130E+01 -.105E+01   0.248E+00 0.135E+01 0.112E+01   -.164E-01 -.403E-01 -.765E-01
   -.163E-02 0.173E+01 -.176E+01   0.240E-02 -.173E+01 0.177E+01   -.525E-03 -.284E-02 -.648E-02
   0.267E+01 -.501E+00 0.177E+01   -.261E+01 0.573E+00 -.178E+01   -.623E-01 -.650E-01 0.149E-01
   0.702E+00 -.161E+01 0.889E+00   -.693E+00 0.166E+01 -.845E+00   -.819E-02 -.483E-01 -.423E-01
   -.356E+00 0.114E+01 -.177E+00   0.362E+00 -.116E+01 0.119E+00   -.462E-02 0.257E-01 0.480E-01
   -.241E-02 0.571E+00 -.591E+00   0.307E-02 -.540E+00 0.559E+00   -.605E-03 -.409E-01 0.334E-01
   0.220E+01 0.206E+01 0.561E+00   -.221E+01 -.201E+01 -.510E+00   0.121E-01 -.452E-01 -.556E-01
   0.941E+00 0.127E+01 -.194E+01   -.794E+00 -.107E+01 0.192E+01   -.141E+00 -.197E+00 0.263E-01
   0.235E+00 0.108E+01 0.128E+01   -.251E+00 -.115E+01 -.133E+01   0.159E-01 0.678E-01 0.486E-01
   0.314E+01 0.306E+01 -.120E+01   -.313E+01 -.304E+01 0.108E+01   -.127E-01 -.180E-01 0.121E+00
   -.330E+01 0.515E+01 -.324E+01   0.298E+01 -.467E+01 0.281E+01   0.315E+00 -.437E+00 0.405E+00
   0.110E+01 0.106E+00 0.468E+01   -.111E+01 -.684E-01 -.479E+01   0.966E-03 -.375E-01 0.114E+00
   0.361E+00 0.148E+00 -.114E+01   -.367E+00 -.891E-01 0.116E+01   0.493E-02 -.582E-01 -.151E-01
   -.315E+01 0.114E+01 -.307E+01   0.313E+01 -.102E+01 0.305E+01   0.138E-01 -.112E+00 0.295E-01
   -.242E+01 0.597E+01 0.656E-01   0.225E+01 -.596E+01 0.942E-02   0.156E+00 -.757E-02 -.698E-01
   -.936E+00 0.192E+01 -.130E+01   0.788E+00 -.190E+01 0.109E+01   0.142E+00 -.215E-01 0.198E+00
   -.135E+00 -.466E+01 -.171E+01   0.197E+00 0.464E+01 0.164E+01   -.561E-01 0.266E-01 0.600E-01
   -.460E+01 -.178E+00 0.594E+01   0.428E+01 0.165E+00 -.513E+01   0.288E+00 0.637E-02 -.762E+00
   -.266E+01 -.176E+01 0.519E+00   0.260E+01 0.177E+01 -.591E+00   0.616E-01 -.163E-01 0.658E-01
   -.110E+01 -.468E+01 -.282E-01   0.111E+01 0.479E+01 -.108E-01   -.838E-03 -.112E+00 0.378E-01
   0.892E+00 -.615E+00 0.112E+01   -.905E+00 0.598E+00 -.124E+01   0.219E-01 0.256E-01 0.110E+00
   -.168E+01 -.133E+01 0.469E+00   0.168E+01 0.133E+01 -.522E+00   0.616E-02 -.922E-02 0.489E-01
   0.329E+01 0.315E+01 -.519E+01   -.296E+01 -.272E+01 0.471E+01   -.315E+00 -.402E+00 0.454E+00
   0.298E+01 0.940E+00 0.374E+01   -.301E+01 -.830E+00 -.358E+01   0.410E-01 -.116E+00 -.136E+00
   -.121E+01 0.132E+01 0.282E+01   0.115E+01 -.135E+01 -.269E+01   0.605E-01 0.258E-01 -.128E+00
   -.253E+01 0.362E+01 -.330E+01   0.262E+01 -.357E+01 0.329E+01   -.769E-01 -.422E-01 0.178E-01
   -.219E+01 -.576E+00 -.204E+01   0.220E+01 0.523E+00 0.199E+01   -.112E-01 0.577E-01 0.459E-01
   -.699E+00 -.859E+00 0.162E+01   0.690E+00 0.813E+00 -.167E+01   0.817E-02 0.430E-01 0.482E-01
   -.128E+00 -.460E+01 0.391E+01   0.197E+00 0.454E+01 -.376E+01   -.554E-01 0.503E-01 -.134E+00
   0.958E+00 -.379E+01 0.751E-01   -.764E+00 0.374E+01 -.305E-02   -.174E+00 0.503E-01 -.579E-01
   0.711E+01 0.709E+01 -.153E+02   -.671E+01 -.628E+01 0.136E+02   -.378E+00 -.667E+00 0.145E+01
   -.879E+00 -.561E+01 -.782E+01   0.150E+01 0.578E+01 0.740E+01   -.598E+00 -.190E+00 0.382E+00
   -.365E-03 -.435E+01 0.441E+01   0.194E-02 0.417E+01 -.423E+01   -.102E-02 0.160E+00 -.165E+00
   0.628E+00 -.848E+01 -.139E+01   -.983E+00 0.701E+01 0.169E+01   0.321E+00 0.137E+01 -.275E+00
   0.118E+01 -.154E+00 0.920E+00   -.121E+01 0.319E+00 -.103E+01   0.276E-01 -.176E+00 0.122E+00
   0.113E+01 -.194E+01 0.165E+01   -.112E+01 0.187E+01 -.158E+01   -.128E-01 0.818E-01 -.414E-01
   0.138E-02 -.157E+01 0.158E+01   -.670E-03 0.176E+01 -.178E+01   -.484E-03 -.184E+00 0.190E+00
   -.143E+01 -.163E+01 0.164E+01   0.129E+01 0.136E+01 -.146E+01   0.129E+00 0.251E+00 -.174E+00
   -.135E+01 0.729E+01 -.437E+01   0.200E+01 -.609E+01 0.431E+01   -.602E+00 -.110E+01 0.593E-01
   -.212E+01 -.835E+00 -.259E+01   0.209E+01 0.102E+01 0.272E+01   0.186E-01 -.190E+00 -.133E+00
   0.263E+01 0.170E+01 0.531E+01   -.983E+00 -.165E+01 -.540E+01   -.151E+01 -.470E-01 0.944E-01
   -.620E+00 0.154E+01 0.846E+01   0.980E+00 -.181E+01 -.699E+01   -.325E+00 0.251E+00 -.136E+01
   0.400E+01 0.136E+01 0.321E+01   -.400E+01 -.116E+01 -.338E+01   0.335E-02 -.180E+00 0.145E+00
[...]
   0.258E+02 -.596E+01 -.372E+00   -.295E+02 0.553E+01 0.578E+00   0.384E+01 0.425E+00 -.163E+00
   -.390E+01 -.966E+01 -.101E+02   0.396E+01 0.126E+02 0.130E+02   -.696E-01 -.303E+01 -.297E+01
   -.127E+01 0.123E+02 0.152E+02   0.128E+01 -.151E+02 -.180E+02   -.103E-01 0.283E+01 0.285E+01
   -.221E+02 0.979E+00 0.133E+01   0.261E+02 -.935E+00 -.132E+01   -.408E+01 -.363E-01 -.105E-01
   0.205E+02 0.222E+01 -.451E+00   -.245E+02 -.223E+01 0.498E+00   0.403E+01 0.297E-02 -.615E-01
   0.279E+00 -.130E+02 -.131E+02   -.256E+00 0.158E+02 0.159E+02   -.224E-01 -.288E+01 -.284E+01
   -.893E+00 0.140E+02 0.125E+02   0.898E+00 -.170E+02 -.153E+02   0.215E-02 0.303E+01 0.286E+01
   -.196E+02 0.517E+01 -.105E+01   0.235E+02 -.529E+01 0.945E+00   -.407E+01 0.115E+00 0.902E-01
   0.205E+02 0.736E+00 0.633E-01   -.245E+02 -.752E+00 -.285E-01   0.411E+01 0.132E-01 -.353E-01
   0.509E+00 -.135E+02 -.132E+02   -.517E+00 0.164E+02 0.160E+02   0.675E-02 -.290E+01 -.285E+01
   0.326E+01 0.115E+02 0.117E+02   -.285E+01 -.142E+02 -.148E+02   -.386E+00 0.278E+01 0.316E+01
   -.209E+02 -.215E+01 0.340E+00   0.249E+02 0.220E+01 -.337E+00   -.407E+01 -.410E-01 -.468E-02
   0.209E+02 -.239E+01 -.981E+00   -.243E+02 0.241E+01 0.107E+01   0.348E+01 -.339E-01 -.103E+00
   -.146E+01 -.175E+02 -.140E+02   0.143E+01 0.203E+02 0.167E+02   0.241E-01 -.285E+01 -.280E+01
   0.757E-02 0.540E+01 -.548E+01   -.369E-12 -.412E-12 -.711E-12   -.703E-02 -.487E+01 0.494E+01

 POSITION                                       TOTAL-FORCE (eV/Angst)
     16.37601     15.59298     15.28844         0.044382      0.003698      0.054190
      2.73530      9.66640      5.75244        -0.002943     -0.032848      0.040938
      2.72794     13.51069      5.70707         0.002318      0.044728      0.029079
     16.40399      7.86150     11.50360        -0.000226      0.010671      0.001682
      0.00187      7.80488      7.65699        -0.003831     -0.008860      0.011916
      2.73939      2.15039     13.41700        -0.008171     -0.043870      0.047429
      2.73561      5.98941     13.41594        -0.003055      0.038916      0.047785
     16.39966      3.96397      7.67910        -0.000328     -0.002352     -0.019128
      0.02787      3.94091      3.84006        -0.044374      0.011391      0.010167
      2.72916     13.58622      9.56963         0.004601      0.042588     -0.046426
      2.72403      2.08571      9.57460         0.005078     -0.046595     -0.040319
      0.00430     11.48400      0.00412         0.000895     -0.007261     -0.005376
     16.40207     11.70853     11.49236         0.004045      0.001810      0.000950
      2.73609      5.75382      1.92371        -0.007895      0.033899     -0.046004
      2.72908      9.59058      1.90853        -0.002185     -0.033784     -0.036062
      5.48077     15.38200      3.83522        -0.012048      0.016301     -0.004062
      5.48252     15.59264     15.31316        -0.017478     -0.000558      0.019148
      8.20657      9.67368      5.75159        -0.005836     -0.038758      0.042800
      8.20198     13.51744      5.74710         0.000167      0.041101      0.046746
      5.45535      7.87056     11.50827         0.007830      0.002321      0.010590
      5.46526      7.80637      7.66383         0.001909     -0.006848      0.001501
      8.20526      2.14745     13.41233        -0.001577     -0.042645      0.042838
      8.20197      6.00068     13.39747         0.000028      0.035085      0.048504
      5.46157      3.96109      7.66955         0.008761      0.001612     -0.013162
      5.46895      3.89871      3.82545        -0.003399     -0.007945     -0.001572
      8.19741     13.58062      9.59036         0.005750      0.046227     -0.048827
      8.19256      2.09318      9.58061         0.012153     -0.053287     -0.041071
      5.51862     11.70469     15.30493        -0.036647     -0.024832      0.014805
      5.46676     11.70857     11.48623         0.000919      0.004053     -0.004880
      8.19871      5.78363      1.92136         0.001378      0.046406     -0.046163
      8.21139      9.61570      1.90809        -0.012277     -0.046522     -0.033018
     10.92318     15.39619      3.84911         0.011798      0.009264      0.014008
     10.93501      0.00678      0.00149         0.003402     -0.010655      0.005579
     13.67481      9.69428      5.74570        -0.004562     -0.040637      0.046423
     13.67601     13.55759      5.75309        -0.002140      0.028621      0.043125
     10.94863      7.85663     11.49457        -0.008230      0.010173     -0.006093
     10.93719      7.81108      7.65679        -0.000789     -0.014115      0.010283
     13.66785      2.14568     13.44216         0.007954     -0.042104      0.039932
     13.66835      5.98244     13.40907         0.003188      0.039917      0.048737
     10.88532      3.99304      7.72795         0.037143      0.027683     -0.060933
     10.92144      3.91635      3.84076         0.017184      0.009146      0.015619
     13.66865     13.57996      9.59759         0.002984      0.047900     -0.051277
     13.67485      2.09321      9.60576         0.002172     -0.050824     -0.042198
     10.94240     11.49358      0.00684        -0.008337      0.003638     -0.014260
     10.93871     11.70160     11.49105        -0.001872      0.000167     -0.003419
     13.66458      5.77891      1.91855         0.008073      0.041608     -0.045260
     13.67996      9.62186      1.91549        -0.005413     -0.046810     -0.041140
      2.82706     13.38352      1.84470        -0.064431      0.109817     -0.038716
      2.76853      1.92605      1.89368        -0.054452     -0.082608     -0.058155
     16.40398     11.63691      7.66098         0.000039     -0.002151      0.007297
      0.02603     11.54698      3.83071        -0.030327      0.020194     -0.004320
      2.73090      5.92185      9.58243         0.001868      0.022399     -0.030410
      2.73012      9.74848      9.58313         0.002717     -0.028210     -0.033835
     16.40398      3.82932      0.00357        -0.000208     -0.015720      0.010803
     16.40122      4.02933     11.51143         0.007543      0.001068      0.002181
      2.73567      2.02604      5.73475        -0.016440     -0.044847      0.045973
      2.73658      5.85186      5.75772        -0.009436      0.027785      0.029112
      0.02244      0.20654     11.51070        -0.020983     -0.005799      0.014668
     16.37790      0.13682      7.68350         0.030957      0.001695     -0.047102
      2.73061      9.82255     13.41191         0.004456     -0.044036      0.039863
[...]
     15.01968      5.88400      7.66254        -0.304151     -0.012570      0.000866
     12.23075      3.99233      5.80710         0.296273     -0.003181      0.035075
     15.02116      2.04332      7.65780        -0.015111     -0.204755     -0.196720
     15.04116     13.64219     11.52063         0.000791      0.214845      0.219758
     12.28898      0.17194      9.58781        -0.307210      0.006860      0.008042
     15.05683      2.11473     11.52592         0.305618     -0.000020     -0.022869
     12.30291     15.54426     13.40146        -0.000912     -0.225916     -0.226532
     12.31255     11.55633      1.93987         0.006544      0.237845      0.221564
     15.01630     13.40101      0.00010        -0.303456     -0.003470     -0.011655
     12.32025     11.72846     13.41426         0.298156     -0.001513     -0.008754
     15.04056      9.82418     15.30951        -0.000594     -0.220085     -0.224290
     15.01781      5.81066      3.85102         0.017855      0.248891      0.220931
     12.29037      7.70484      1.91628        -0.307805      0.006914      0.001328
     15.06287      9.65191      3.83266         0.304368     -0.007861     -0.015085
     12.30708      7.76237      5.72669        -0.004304     -0.220440     -0.215716
    total drift:                                0.000904     -0.005334      0.001274

  FREE ENERGIE OF THE ION-ELECTRON SYSTEM (eV)
  free  energy   TOTEN  =     -1132.16768517 eV

  energy  without entropy=    -1132.13854413  energy(sigma->0) =    -1132.15311465

 writing wavefunctions

 total charge

[...]

 magnetization (x)

# of ion       s       p       d       tot
    1        0.000   0.000  -0.000   0.000
    2       -0.000  -0.000  -0.000  -0.000
    3       -0.000  -0.000  -0.000  -0.000
    4        0.000  -0.000  -0.000  -0.000
    5       -0.000   0.000  -0.000  -0.000
    6        0.000  -0.000  -0.000  -0.000
    7       -0.000  -0.000  -0.000  -0.000
    8        0.000   0.000  -0.000   0.000
    9        0.000   0.000  -0.000  -0.000
   10       -0.000  -0.000  -0.000  -0.000
   11       -0.000   0.000  -0.000  -0.000
   12        0.000   0.000  -0.000   0.000
   13       -0.000  -0.000  -0.000  -0.000
   14        0.000   0.000  -0.000  -0.000
   15       -0.000  -0.000  -0.000  -0.000
   16        0.000   0.000  -0.000   0.000
   17        0.000   0.000  -0.000   0.000
   18        0.000   0.000  -0.000   0.000
   19        0.000  -0.000  -0.000  -0.000
   20        0.000  -0.000  -0.000  -0.000
   21        0.000   0.000  -0.000   0.000
   22       -0.000  -0.000  -0.000  -0.000
   23       -0.000  -0.000  -0.000  -0.000
   24        0.000   0.000  -0.000   0.000
   25        0.000   0.000  -0.000   0.000
   26       -0.000   0.000  -0.000  -0.000
   27       -0.000  -0.000  -0.000  -0.000
   28        0.000  -0.000  -0.000  -0.000
   29       -0.000  -0.000  -0.000  -0.000
   30       -0.000  -0.000  -0.000  -0.000
   31        0.000   0.000  -0.000  -0.000
   32       -0.000  -0.000  -0.000  -0.000
   33       -0.000   0.000  -0.000  -0.000
   34       -0.000  -0.000  -0.000  -0.000
   35        0.000   0.000  -0.000  -0.000
   36        0.000   0.000  -0.000  -0.000
   37        0.000   0.000  -0.000   0.000
   38        0.000  -0.000  -0.000  -0.000
   39       -0.000  -0.000  -0.000  -0.000
   40        0.000   0.000  -0.000   0.000
   41       -0.000  -0.000  -0.000  -0.000
   42       -0.000   0.000  -0.000  -0.000
   43       -0.000  -0.000  -0.000  -0.000
   44        0.000   0.000  -0.000  -0.000
   45        0.000   0.000  -0.000   0.000
   46        0.000   0.000  -0.000  -0.000
   47       -0.000  -0.000  -0.000  -0.000
   48       -0.000   0.000  -0.000  -0.000
   49       -0.000   0.000  -0.000  -0.000
   50       -0.000  -0.000  -0.000  -0.000
   51       -0.000  -0.000  -0.000  -0.000
   52       -0.000   0.000  -0.000  -0.000
   53       -0.000   0.000  -0.000   0.000
   54       -0.000   0.000  -0.000  -0.000
   55       -0.000  -0.000  -0.000  -0.000
   56       -0.000  -0.000  -0.000  -0.000
   57       -0.000   0.000  -0.000   0.000
   58       -0.000  -0.000  -0.000  -0.000
   59       -0.000  -0.000  -0.000  -0.000
   60       -0.000   0.000  -0.000  -0.000
[...]
  178       -0.000  -0.000   0.000  -0.000
  179       -0.000  -0.000   0.000  -0.000
  180        0.000   0.000   0.000   0.000
  181        0.000  -0.000   0.000  -0.000
  182        0.000   0.000   0.000   0.000
  183       -0.000  -0.000   0.000  -0.000
  184        0.000   0.000   0.000   0.000
  185       -0.000   0.000   0.000   0.000
  186       -0.000  -0.000   0.000  -0.000
  187        0.000  -0.000   0.000  -0.000
  188       -0.000  -0.000   0.000  -0.000
  189       -0.000  -0.000   0.000  -0.000
  190        0.000  -0.000   0.000   0.000
  191        0.000  -0.000   0.000  -0.000
  192        0.000   0.000   0.000   0.000
tot         -0.000  -0.000  -0.000  -0.000