 vasp.5.4.4.18Apr17-6-g9f103f2a35 (build Nov 17 2021 14:08:04) gamma-only

 executed on             LinuxIFC date 2022.03.05  17:57:06

 INCAR:
 POTCAR:    PAW_PBE Ga 08Apr2002
 POTCAR:    PAW_PBE N 08Apr2002
 POTCAR:    PAW_PBE Ga 08Apr2002
   VRHFIN =Ga: s2p1

   TITEL  = PAW_PBE Ga 08Apr2002
   POMASS =   69.723; ZVAL   =    3.000    mass and valenz
   ENMAX  =  134.678; ENMIN  =  101.009 eV

 POTCAR:    PAW_PBE N 08Apr2002
   VRHFIN =N: s2p3

   TITEL  = PAW_PBE N 08Apr2002
   POMASS =   14.001; ZVAL   =    5.000    mass and valenz
   ENMAX  =  400.000; ENMIN  =  300.000 eV

  PAW_PBE Ga 08Apr2002                  :
  PAW_PBE N 08Apr2002                   :

 POSCAR: C_N1
  positions in direct lattice
  velocities in cartesian coordinates
 exchange correlation table for  LEXCH =        8
   RHO(1)=    0.500       N(1)  =     2000
   RHO(2)=  100.500       N(2)  =     4000

 ion  position               nearest neighbor table
   1  0.000  0.168  0.255-  67 1.96 113 1.96  65 1.96 128 1.96   8 3.16  54 3.16   6 3.16  49 3.18
                            17 3.18  51 3.18   3 3.18  59 3.20  11 3.20   4 3.24  50 3.27   2 3.27
   2  0.125  0.078  0.997-  74 1.93  69 1.94  80 1.97 128 2.03  15 3.13  12 3.15  28 3.16   5 3.16
                            21 3.17  11 3.18  18 3.19  50 3.19  17 3.23  20 3.24   1 3.27   4 3.28
   3  0.124  0.417  0.251-  67 1.95  73 1.95  83 1.95  66 1.96   4 3.17  51 3.17  20 3.18  14 3.18
                            24 3.18   1 3.18   9 3.19   8 3.19  10 3.19  17 3.19  25 3.19  19 3.20
   4  0.000  0.337  1.000- 114 1.96  66 1.96 128 1.96  71 1.97  55 3.17   7 3.17  58 3.17  10 3.17
                            51 3.17   3 3.17   5 3.18  20 3.18  52 3.18   1 3.24  50 3.28   2 3.28
   5  0.000  0.168  0.752-  71 1.95 117 1.95  69 1.95  68 1.96  50 3.16   2 3.16   8 3.17   4 3.18
                            54 3.18   6 3.18  55 3.19   7 3.19  21 3.20  53 3.20  63 3.22  15 3.22
   6  0.125  0.083  0.502-  65 1.95  78 1.95  84 1.95  68 1.95  15 3.16   1 3.16  21 3.16   5 3.18
                            17 3.18  11 3.19  22 3.19  32 3.19  54 3.19  16 3.19  24 3.19   8 3.20
   7  0.125  0.417  0.750-  71 1.94  77 1.95  87 1.95  70 1.95   8 3.16   4 3.17  20 3.17  14 3.17
                            24 3.18  29 3.18  13 3.18  10 3.18  23 3.19   5 3.19  21 3.20  55 3.20
   8  0.000  0.334  0.503-  67 1.94 118 1.95  70 1.95  68 1.95  55 3.16   7 3.16   1 3.16   5 3.17
                            62 3.18  14 3.18  51 3.19   3 3.19  56 3.19  24 3.19  54 3.20   6 3.20
   9  0.000  0.667  0.251-  75 1.95 121 1.95  73 1.95  72 1.96  12 3.17  16 3.17  62 3.18  14 3.18
                            58 3.18  10 3.18  51 3.19   3 3.19  25 3.19  57 3.19  59 3.20  11 3.20
  10  0.125  0.585  0.001-  66 1.93  72 1.95  88 1.95  77 1.96  28 3.17  12 3.17  25 3.17   4 3.17
                            29 3.18   9 3.18  13 3.18   7 3.18  26 3.19   3 3.19  20 3.19  58 3.20
  11  0.125  0.917  0.251-  65 1.94  75 1.95  91 1.95  74 1.96  16 3.17  32 3.17  17 3.18   2 3.18
                            12 3.19   6 3.19  27 3.19  59 3.19   9 3.20  28 3.20   1 3.20  25 3.20
  12  0.000  0.832  0.001-  72 1.94 122 1.95  74 1.95  79 1.96  50 3.15   2 3.15   9 3.17  58 3.17
                            10 3.17  13 3.18  59 3.19  11 3.19  63 3.19  15 3.19  60 3.20  28 3.20
  13  0.000  0.667  0.750- 125 1.95  77 1.95  79 1.95  76 1.96  12 3.18  62 3.18  14 3.18  58 3.18
                            10 3.18  63 3.18  15 3.18  16 3.18  55 3.18   7 3.18  29 3.19  61 3.19
  14  0.125  0.584  0.500-  70 1.94  76 1.95  92 1.95  73 1.95   7 3.17  25 3.18   3 3.18   9 3.18
                            29 3.18  13 3.18   8 3.18  16 3.19  32 3.19  24 3.19  30 3.19  62 3.19
  15  0.125  0.915  0.750-  69 1.95  79 1.95  78 1.95  95 1.95   2 3.13   6 3.16  32 3.17  16 3.17
                            13 3.18  29 3.18  12 3.19  28 3.19  31 3.19  63 3.19  21 3.21   5 3.22
  16  0.000  0.833  0.500-  76 1.95 126 1.95  78 1.95  75 1.95   9 3.17  63 3.17  15 3.17  59 3.17
                            11 3.17  13 3.18  62 3.19  14 3.19  32 3.19  64 3.19  54 3.19   6 3.19
  17  0.249  0.166  0.251-  65 1.94  83 1.95  81 1.95  80 1.96  24 3.17  22 3.18  11 3.18   1 3.18
                             6 3.18  20 3.19  18 3.19   3 3.19  27 3.20  19 3.20  33 3.20   2 3.23
  18  0.375  0.083  0.000-  90 1.94  85 1.95  96 1.96  80 1.97  21 3.18  31 3.18  27 3.18  37 3.18
                             2 3.19  33 3.19  28 3.19  17 3.19  44 3.19  36 3.20  34 3.20  20 3.20
  19  0.375  0.417  0.251-  83 1.95  89 1.95  99 1.95  82 1.96  24 3.17  26 3.18  40 3.18  30 3.18
                            36 3.18  20 3.18  33 3.19  25 3.19  41 3.19  35 3.19   3 3.20  17 3.20
  20  0.249  0.334  0.001-  66 1.94  82 1.95  87 1.96  80 1.96   7 3.17   3 3.18   4 3.18  19 3.18
                            21 3.18  23 3.19  17 3.19  10 3.19  26 3.19  18 3.20  36 3.20   2 3.24
  21  0.250  0.167  0.750-  87 1.95  69 1.95  85 1.95  84 1.95   6 3.16   2 3.17  22 3.18  18 3.18
                            24 3.18  20 3.18  23 3.18  37 3.19  31 3.19   7 3.20   5 3.20  15 3.21
  22  0.375  0.083  0.500-  84 1.95  94 1.95 100 1.95  81 1.96  33 3.17  17 3.18  27 3.18  21 3.18
                            37 3.18  31 3.18   6 3.19  38 3.19  40 3.19  48 3.19  32 3.19  24 3.19
  23  0.375  0.417  0.751-  93 1.95  87 1.95 103 1.95  86 1.96  26 3.18  36 3.18  40 3.18  30 3.18
                            24 3.18  21 3.18  20 3.19   7 3.19  29 3.19  45 3.19  37 3.19  39 3.19
  24  0.250  0.334  0.500-  70 1.95  84 1.95  86 1.95  83 1.96  19 3.17  17 3.17   3 3.18  21 3.18
                             7 3.18  23 3.18  30 3.19  14 3.19  40 3.19   8 3.19  22 3.19   6 3.19
  25  0.250  0.667  0.251-  73 1.95  91 1.95  89 1.95  88 1.96  10 3.17  28 3.18  14 3.18  32 3.18
                            30 3.18  26 3.18  19 3.19  41 3.19  27 3.19   9 3.19   3 3.19  11 3.20
  26  0.375  0.583  0.001-  88 1.94  82 1.95 104 1.95  93 1.96  19 3.18  23 3.18  41 3.18  45 3.18
                            28 3.18  25 3.18  29 3.18  36 3.18  42 3.19  10 3.19  20 3.19  44 3.19
  27  0.375  0.917  0.251-  91 1.95  81 1.95 107 1.95  90 1.96  32 3.17  22 3.18  48 3.18  28 3.18
                            18 3.18  44 3.18  11 3.19  25 3.19  43 3.19  41 3.19  33 3.19  17 3.20
  28  0.251  0.832  0.000-  88 1.94  74 1.95  90 1.95  95 1.96   2 3.16  10 3.17  29 3.17  25 3.18
                            31 3.18  27 3.18  44 3.18  26 3.18  18 3.19  15 3.19  11 3.20  12 3.20
  29  0.250  0.667  0.750-  77 1.95  95 1.95  93 1.95  92 1.95  28 3.17  30 3.17  10 3.18  14 3.18
                            32 3.18  15 3.18   7 3.18  26 3.18  45 3.19  23 3.19  31 3.19  13 3.19
  30  0.375  0.583  0.501-  86 1.95  92 1.95 108 1.95  89 1.96  29 3.17  41 3.18  25 3.18  45 3.18
                            23 3.18  19 3.18  24 3.19  32 3.19  40 3.19  46 3.19  48 3.19  14 3.19
  31  0.375  0.917  0.750-  95 1.95 111 1.95  85 1.95  94 1.96  48 3.18  28 3.18  18 3.18  32 3.18
                            22 3.18  44 3.18  47 3.19  29 3.19  45 3.19  15 3.19  37 3.19  21 3.19
  32  0.250  0.833  0.500-  92 1.95  78 1.95  94 1.95  91 1.95  15 3.17  27 3.17  11 3.17  25 3.18
                            29 3.18  31 3.18  14 3.19  30 3.19  48 3.19   6 3.19  22 3.19  16 3.19
  33  0.500  0.167  0.251-  99 1.95  81 1.95  97 1.95  96 1.96  22 3.17  38 3.17  40 3.18  36 3.18
                            18 3.19  34 3.19  19 3.19  35 3.19  27 3.19  43 3.19  17 3.20  49 3.20
  34  0.625  0.083  0.000- 106 1.94 101 1.95  96 1.96 112 1.97  53 3.18  47 3.18  43 3.18  37 3.18
                            50 3.19  33 3.19  60 3.19  49 3.19  44 3.19  36 3.20  18 3.20  52 3.20
  35  0.625  0.417  0.251- 115 1.95 105 1.95  99 1.95  98 1.96  56 3.17  42 3.18  40 3.18  46 3.18
                            36 3.18  52 3.18  33 3.19  57 3.19  41 3.19  19 3.19  51 3.20  49 3.20
  36  0.500  0.334  0.000-  82 1.95  98 1.95  96 1.95 103 1.96  23 3.18  39 3.18  37 3.18  19 3.18
                            35 3.18  33 3.18  26 3.18  42 3.18  18 3.20  34 3.20  20 3.20  52 3.20
  37  0.500  0.167  0.751- 103 1.95  85 1.95 101 1.95 100 1.96  40 3.18  36 3.18  22 3.18  38 3.18
                            18 3.18  34 3.18  21 3.19  53 3.19  23 3.19  39 3.19  31 3.19  47 3.19
  38  0.625  0.083  0.500- 116 1.95 110 1.95 100 1.95  97 1.96  33 3.17  49 3.18  43 3.18  53 3.18
                            37 3.18  47 3.18  54 3.19  22 3.19  40 3.19  48 3.19  64 3.19  56 3.19
  39  0.625  0.417  0.751- 109 1.95 119 1.95 103 1.95 102 1.96  42 3.18  36 3.18  40 3.18  46 3.18
                            56 3.18  53 3.18  52 3.19  55 3.19  61 3.19  45 3.19  37 3.19  23 3.19
  40  0.500  0.333  0.501-  86 1.95 102 1.95 100 1.95  99 1.96  33 3.18  23 3.18  39 3.18  37 3.18
                            19 3.18  35 3.18  30 3.19  46 3.19  24 3.19  56 3.19  22 3.19  38 3.19
  41  0.500  0.667  0.251-  89 1.95 105 1.95 107 1.95 104 1.96  30 3.18  46 3.18  48 3.18  26 3.18
                            42 3.18  44 3.18  25 3.19  57 3.19  19 3.19  35 3.19  27 3.19  43 3.19
  42  0.625  0.583  0.001- 120 1.94  98 1.95 104 1.95 109 1.96  35 3.18  39 3.18  41 3.18  45 3.18
                            60 3.18  57 3.18  61 3.18  36 3.18  26 3.19  58 3.19  52 3.19  44 3.19
  43  0.625  0.917  0.251- 123 1.95  97 1.95 107 1.95 106 1.96  64 3.17  38 3.18  48 3.18  60 3.18
                            34 3.18  44 3.18  59 3.19  57 3.19  27 3.19  41 3.19  33 3.19  49 3.20
  44  0.500  0.833  0.001- 104 1.95  90 1.95 106 1.95 111 1.96  45 3.18  28 3.18  60 3.18  41 3.18
                            31 3.18  47 3.18  27 3.18  43 3.18  18 3.19  34 3.19  26 3.19  42 3.19
  45  0.500  0.667  0.751-  93 1.95 109 1.95 111 1.95 108 1.96  30 3.18  46 3.18  44 3.18  48 3.18
                            26 3.18  42 3.18  29 3.19  61 3.19  23 3.19  39 3.19  31 3.19  47 3.19
  46  0.625  0.583  0.501- 102 1.95 124 1.95 108 1.95 105 1.96  61 3.17  41 3.18  57 3.18  45 3.18
                            39 3.18  35 3.18  56 3.19  64 3.19  40 3.19  30 3.19  48 3.19  62 3.19
  47  0.625  0.917  0.750- 127 1.95 111 1.95 101 1.95 110 1.96  48 3.18  60 3.18  34 3.18  64 3.18
                            38 3.18  44 3.18  31 3.19  61 3.19  45 3.19  63 3.19  37 3.19  53 3.19
  48  0.500  0.833  0.501- 108 1.95  94 1.95 110 1.95 107 1.96  31 3.18  47 3.18  27 3.18  43 3.18
                            41 3.18  45 3.18  32 3.19  64 3.19  30 3.19  46 3.19  22 3.19  38 3.19
  49  0.751  0.166  0.251- 113 1.94 115 1.95  97 1.95 112 1.96  56 3.17  38 3.18  59 3.18   1 3.18
                            54 3.18  52 3.19  34 3.19  51 3.19  43 3.20  35 3.20  33 3.20  50 3.23
  50  0.875  0.078  0.997- 122 1.93 117 1.94 112 1.97 128 2.03  63 3.13  12 3.15  60 3.16   5 3.16
                            53 3.17  59 3.18  34 3.19   2 3.19  49 3.23  52 3.24   1 3.27   4 3.28
  51  0.876  0.417  0.251-  67 1.95 121 1.95 115 1.95 114 1.96   4 3.17   3 3.17  52 3.18  62 3.18
                            56 3.18   1 3.18   9 3.19   8 3.19  58 3.19  49 3.19  57 3.19  35 3.20
  52  0.751  0.334  0.001- 114 1.94  98 1.95 119 1.96 112 1.96  55 3.17  51 3.18   4 3.18  35 3.18
[...]
   34.729084    0.759858    0.765991    0.775422    0.000000    0.000017    0.000000
   35.083463    0.765247    0.771256    0.780441    0.000000    0.000016    0.000000

  frequency dependent IMAGINARY DIELECTRIC FUNCTION (independent particle, no local field effects) current-current (2nd set in vasprun.xml)
     E(ev)      X         Y         Z        XY        YZ        ZX
    0.000000   18.503546   17.522256   17.243418    0.000000    0.013771    0.000000
    0.354378    1.861906    1.763218    1.735753    0.000000    0.001409    0.000000
    0.708757    0.949164    0.898946    0.885911    0.000000    0.000757    0.000000
    1.063135    0.654774    0.620257    0.612502    0.000000    0.000572    0.000000
    1.417514    0.517555    0.490446    0.485931    0.000000    0.000520    0.000000
    1.771892    0.447514    0.424318    0.422657    0.000000    0.000549    0.000000
    2.126270    0.419230    0.397828    0.399677    0.000000    0.000682    0.000000
    2.480649    0.433764    0.411934    0.419699    0.000000    0.001052    0.000000
    2.835027    0.535530    0.507740    0.529381    0.000000    0.002292    0.000000
    3.189406    1.046093    0.972466    1.048850    0.000000    0.010153    0.000000
    3.543784    8.971373    8.116050    8.997685    0.000000    0.159901    0.000000
    3.898163    1.177762    1.241296    1.365346    0.000000   -0.017781    0.000000
    4.252541    0.429328    0.404242    0.409726    0.000000   -0.002382    0.000000
    4.606919    0.311096    0.287244    0.277502    0.000000   -0.000182    0.000000
    4.961298    0.297826    0.275391    0.257801    0.000000    0.000136    0.000000
    5.315676    0.324380    0.305018    0.282494    0.000000    0.000245    0.000000
    5.670055    0.411569    0.393420    0.373115    0.000000    0.000301    0.000000
    6.024433    0.674624    0.676198    0.756853    0.000000    0.004873    0.000000
    6.378811    2.140344    3.326111    5.485300    0.000000    0.056598    0.000000
    6.733190    8.541965    6.919287    2.815237    0.000000   -0.020478    0.000000
    7.087568    2.981388    2.437227    1.023958    0.000000    0.002509    0.000000
    7.441947    1.824625    1.599169    0.740918    0.000000    0.001447    0.000000
    7.796325    2.015005    1.694722    1.773534    0.000000    0.019031    0.000000
    8.150703   12.160722   10.371640    8.352654    0.000000   -0.024830    0.000000
    8.505082   15.972605    7.960168    4.769445    0.000000   -0.112082    0.000000
    8.859460    3.354986    5.853280    2.692795    0.000000    0.061971    0.000000
    9.213839    4.853905    5.885100   12.041817    0.000000   -0.230757    0.000000
    9.568217    8.142143    8.682477   16.674546    0.000000    0.160703    0.000000
    9.922596    7.758671    5.217140    5.140357    0.000000    0.020573    0.000000
   10.276974    2.010145    2.395344    2.654896    0.000000   -0.008378    0.000000
   10.631352    1.580656    2.816090    1.867564    0.000000   -0.019613    0.000000
   10.985731    5.297480    4.348098    1.842257    0.000000   -0.023691    0.000000
   11.340109    3.731697    4.915747    3.741432    0.000000    0.032423    0.000000
   11.694488    5.610067    5.969086    7.097320    0.000000   -0.156956    0.000000
   12.048866    3.941111    4.971533    4.229136    0.000000    0.089082    0.000000
   12.403244    4.599600    4.676776    2.716148    0.000000    0.001585    0.000000
   12.757623    2.173942    1.456200    1.652356    0.000000    0.017146    0.000000
   13.112001    2.059859    1.436859    2.234901    0.000000   -0.026883    0.000000
   13.466380    1.408669    2.219334    2.243216    0.000000    0.001354    0.000000
   13.820758    1.788050    0.795503    1.671870    0.000000    0.030620    0.000000
   14.175136    1.569439    1.161568    1.189753    0.000000   -0.014663    0.000000
   14.529515    0.579195    1.031383    1.125932    0.000000    0.024076    0.000000
   14.883893    1.283185    2.236839    0.975235    0.000000   -0.015114    0.000000
   15.238272    1.094658    0.571964    0.419653    0.000000   -0.000795    0.000000
   15.592650    0.950495    0.674453    0.680222    0.000000   -0.007235    0.000000
   15.947029    0.392565    0.672564    0.207427    0.000000    0.003340    0.000000
   16.301407    0.362927    0.336934    0.123781    0.000000    0.003244    0.000000
   16.655785    0.292011    0.389489    0.175788    0.000000   -0.000280    0.000000
   17.010164    0.203749    0.089971    0.133330    0.000000   -0.001024    0.000000
   17.364542    0.166174    0.106370    0.152617    0.000000   -0.003823    0.000000
   17.718921    0.076800    0.043502    0.034178    0.000000   -0.000409    0.000000
   18.073299    0.030548    0.030127    0.040090    0.000000    0.000391    0.000000
   18.427677    0.016177    0.015377    0.013850    0.000000   -0.000025    0.000000
   18.782056    0.011488    0.010955    0.009892    0.000000   -0.000007    0.000000
   19.136434    0.009017    0.008747    0.007531    0.000000   -0.000018    0.000000
   19.490813    0.007430    0.007288    0.006206    0.000000   -0.000012    0.000000
   19.845191    0.006328    0.006258    0.005292    0.000000   -0.000009    0.000000
   20.199569    0.005616    0.005594    0.004621    0.000000   -0.000007    0.000000
   20.553948    0.005503    0.005701    0.004187    0.000000   -0.000016    0.000000
   20.908326    0.011239    0.011909    0.004386    0.000000   -0.000052    0.000000
[...]
   30.122165    0.000424    0.000421    0.000362    0.000000   -0.000001    0.000000
   30.476543    0.000386    0.000385    0.000333    0.000000   -0.000001    0.000000
   30.830922    0.000355    0.000353    0.000308    0.000000   -0.000001    0.000000
   31.185300    0.000327    0.000326    0.000285    0.000000   -0.000001    0.000000
   31.539679    0.000302    0.000302    0.000265    0.000000   -0.000001    0.000000
   31.894057    0.000281    0.000280    0.000247    0.000000   -0.000000    0.000000
   32.248435    0.000261    0.000261    0.000230    0.000000   -0.000000    0.000000
   32.602814    0.000243    0.000243    0.000215    0.000000   -0.000000    0.000000
   32.957192    0.000227    0.000227    0.000202    0.000000   -0.000000    0.000000
   33.311571    0.000213    0.000212    0.000189    0.000000   -0.000000    0.000000
   33.665949    0.000199    0.000199    0.000178    0.000000   -0.000000    0.000000
   34.020327    0.000187    0.000187    0.000167    0.000000   -0.000000    0.000000
   34.374706    0.000175    0.000175    0.000157    0.000000   -0.000000    0.000000
   34.729084    0.000165    0.000165    0.000148    0.000000   -0.000000    0.000000
   35.083463    0.000155    0.000155    0.000140    0.000000   -0.000000    0.000000

  frequency dependent      REAL DIELECTRIC FUNCTION (independent particle, no local field effects) current-current (2nd set in vasprun.xml)
     E(ev)        X           Y           Z          XY          YZ          ZX
    0.000000    4.275262    4.101551    4.052024    0.000000    0.002431    0.000000
    0.354378    4.285410    4.111207    4.062043    0.000000    0.002459    0.000000
    0.708757    4.316974    4.141249    4.093257    0.000000    0.002548    0.000000
    1.063135    4.372529    4.194156    4.148384    0.000000    0.002712    0.000000
    1.417514    4.457457    4.275101    4.233101    0.000000    0.002981    0.000000
    1.771892    4.581889    4.393812    4.358120    0.000000    0.003420    0.000000
    2.126270    4.765789    4.569399    4.544582    0.000000    0.004169    0.000000
    2.480649    5.053474    4.844049    4.839340    0.000000    0.005595    0.000000
    2.835027    5.566222    5.331987    5.369597    0.000000    0.008933    0.000000
    3.189406    6.784446    6.476467    6.629357    0.000000    0.020606    0.000000
    3.543784    7.336137    7.911470    8.280726    0.000000   -0.103713    0.000000
    3.898163    1.221307    0.814169    0.213002    0.000000    0.020131    0.000000
    4.252541    2.979525    2.749164    2.354212    0.000000    0.005584    0.000000
    4.606919    3.795214    3.539229    3.192503    0.000000    0.003495    0.000000
    4.961298    4.364439    4.094500    3.751948    0.000000    0.002845    0.000000
    5.315676    4.936741    4.640807    4.275385    0.000000    0.003463    0.000000
    5.670055    5.651166    5.328448    4.927124    0.000000    0.005389    0.000000
    6.024433    6.780777    6.466798    6.088974    0.000000    0.013710    0.000000
    6.378811    9.398112    9.047170    5.369740    0.000000   -0.046114    0.000000
    6.733190    1.824348    1.962029    5.209859    0.000000   -0.006390    0.000000
    7.087568    5.384658    5.106837    3.436227    0.000000    0.004451    0.000000
    7.441947    4.400507    3.547259    5.557284    0.000000    0.007764    0.000000
    7.796325    8.539118    7.270031    8.218642    0.000000    0.022365    0.000000
    8.150703   10.899436    7.742543    3.800898    0.000000   -0.074352    0.000000
    8.505082   -3.550827    0.467227    3.900649    0.000000   -0.058367    0.000000
    8.859460   -0.026532    3.036518    8.188054    0.000000    0.052730    0.000000
    9.213839    2.851188    3.795166   11.279315    0.000000   -0.071587    0.000000
    9.568217    4.159648    3.291486   -3.753755    0.000000    0.041128    0.000000
    9.922596   -2.840816   -3.417682   -8.961288    0.000000   -0.013251    0.000000
   10.276974   -3.560953   -1.750794   -3.494024    0.000000   -0.031134    0.000000
   10.631352    0.201270   -0.433308   -1.330232    0.000000    0.001251    0.000000
   10.985731    2.600945    1.766198    0.516077    0.000000    0.001287    0.000000
   11.340109   -1.545210    3.262222    0.767969    0.000000    0.018317    0.000000
   11.694488    1.978231   -0.222228    2.605228    0.000000    0.050380    0.000000
   12.048866   -4.435987   -5.468276   -5.521220    0.000000   -0.001527    0.000000
   12.403244   -1.586326   -1.830560   -2.363820    0.000000    0.006847    0.000000
   12.757623   -2.511869   -3.201081   -1.535044    0.000000    0.003526    0.000000
   13.112001   -2.168654   -1.995170   -1.767943    0.000000   -0.015517    0.000000
   13.466380   -1.866685   -2.263924   -1.163945    0.000000    0.018773    0.000000
   13.820758   -1.593858   -1.902375   -2.496059    0.000000   -0.018998    0.000000
   14.175136   -1.910188   -1.115598   -1.645603    0.000000    0.005825    0.000000
   14.529515   -1.523700   -0.691438   -1.049777    0.000000    0.010188    0.000000
   14.883893   -0.979043   -1.222154   -2.140603    0.000000   -0.004582    0.000000
   15.238272   -0.738677   -1.551636   -1.442177    0.000000   -0.005234    0.000000
   15.592650   -1.226791   -0.840577   -1.183340    0.000000   -0.000615    0.000000
   15.947029   -1.409951   -1.427095   -1.098401    0.000000    0.002277    0.000000
   16.301407   -0.755483   -0.870961   -0.764622    0.000000   -0.001365    0.000000
   16.655785   -0.880016   -1.187092   -0.685562    0.000000   -0.003073    0.000000
   17.010164   -0.811973   -0.772389   -0.506623    0.000000   -0.001966    0.000000
   17.364542   -0.541842   -0.603568   -0.515585    0.000000    0.000993    0.000000
   17.718921   -0.534475   -0.463671   -0.357775    0.000000    0.002307    0.000000
   18.073299   -0.377206   -0.337616   -0.249697    0.000000    0.000469    0.000000
   18.427677   -0.263145   -0.236862   -0.161532    0.000000    0.000462    0.000000
   18.782056   -0.170085   -0.147363   -0.080908    0.000000    0.000296    0.000000
   19.136434   -0.092111   -0.071564   -0.012545    0.000000    0.000231    0.000000
   19.490813   -0.024388   -0.005267    0.047558    0.000000    0.000179    0.000000
   19.845191    0.035659    0.053749    0.101166    0.000000    0.000137    0.000000
   20.199569    0.089817    0.107123    0.149599    0.000000    0.000104    0.000000
   20.553948    0.139639    0.156509    0.193855    0.000000    0.000075    0.000000
   20.908326    0.187494    0.202921    0.234840    0.000000    0.000025    0.000000
[...]
   30.122165    0.666939    0.675117    0.689296    0.000000    0.000046    0.000000
   30.476543    0.676056    0.684037    0.697697    0.000000    0.000041    0.000000
   30.830922    0.684756    0.692549    0.705727    0.000000    0.000037    0.000000
   31.185300    0.693072    0.700686    0.713415    0.000000    0.000034    0.000000
   31.539679    0.701032    0.708473    0.720781    0.000000    0.000031    0.000000
   31.894057    0.708659    0.715934    0.727848    0.000000    0.000029    0.000000
   32.248435    0.715976    0.723090    0.734632    0.000000    0.000027    0.000000
   32.602814    0.723000    0.729959    0.741150    0.000000    0.000025    0.000000
   32.957192    0.729749    0.736558    0.747417    0.000000    0.000023    0.000000
   33.311571    0.736238    0.742903    0.753448    0.000000    0.000021    0.000000
   33.665949    0.742483    0.749008    0.759254    0.000000    0.000020    0.000000
   34.020327    0.748496    0.754886    0.764847    0.000000    0.000019    0.000000
   34.374706    0.754290    0.760548    0.770239    0.000000    0.000018    0.000000
   34.729084    0.759876    0.766007    0.775439    0.000000    0.000017    0.000000
   35.083463    0.765264    0.771272    0.780457    0.000000    0.000016    0.000000

 The outermost node in the dielectric function lies at epsilon=  19.5

 total charge

[...]

 magnetization (x)

# of ion       s       p       d       tot
    1        0.000   0.000  -0.000   0.000
    2       -0.000  -0.000   0.000  -0.000
    3       -0.000  -0.000   0.000  -0.000
    4        0.000   0.000  -0.000   0.000
    5       -0.000  -0.000  -0.000  -0.000
    6        0.000   0.000  -0.000   0.000
    7        0.000   0.000  -0.000   0.000
    8       -0.000  -0.000   0.000  -0.000
    9       -0.000  -0.000   0.000  -0.000
   10       -0.000  -0.000  -0.000  -0.000
   11        0.000   0.000  -0.000   0.000
   12       -0.000  -0.000   0.000  -0.000
   13        0.000   0.000   0.000   0.000
   14       -0.000  -0.000   0.000  -0.000
   15       -0.000  -0.000   0.000  -0.000
   16       -0.000  -0.000  -0.000  -0.000
   17       -0.000  -0.000  -0.000  -0.000
   18        0.000   0.000  -0.000   0.000
   19       -0.000  -0.000  -0.000  -0.000
   20        0.000   0.000  -0.000   0.000
   21       -0.000  -0.000   0.000  -0.000
   22        0.000   0.000   0.000   0.000
   23        0.000   0.000  -0.000   0.000
   24        0.000  -0.000  -0.000  -0.000
   25        0.000   0.000  -0.000   0.000
   26       -0.000  -0.000  -0.000  -0.000
   27        0.000   0.000  -0.000   0.000
   28       -0.000  -0.000   0.000  -0.000
   29       -0.000  -0.000   0.000  -0.000
   30        0.000  -0.000  -0.000  -0.000
   31        0.000   0.000  -0.000   0.000
   32        0.000   0.000  -0.000   0.000
   33        0.000   0.000  -0.000   0.000
   34       -0.000  -0.000   0.000  -0.000
   35       -0.000  -0.000  -0.000  -0.000
   36       -0.000  -0.000   0.000  -0.000
   37       -0.000  -0.000   0.000  -0.000
   38        0.000   0.000  -0.000   0.000
   39        0.000   0.000   0.000   0.000
   40        0.000   0.000   0.000   0.000
   41       -0.000   0.000  -0.000  -0.000
   42       -0.000  -0.000   0.000  -0.000
   43       -0.000   0.000   0.000   0.000
   44        0.000   0.000  -0.000   0.000
   45       -0.000  -0.000   0.000  -0.000
   46        0.000   0.000  -0.000   0.000
   47       -0.000   0.000   0.000  -0.000
   48        0.000   0.000   0.000   0.000
   49       -0.000  -0.000  -0.000  -0.000
   50        0.000  -0.000   0.000   0.000
   51       -0.000  -0.000  -0.000  -0.000
   52       -0.000  -0.000   0.000  -0.000
   53        0.000   0.000  -0.000   0.000
   54        0.000   0.000  -0.000   0.000
   55       -0.000   0.000  -0.000  -0.000
   56       -0.000   0.000  -0.000  -0.000
   57       -0.000   0.000  -0.000   0.000
   58       -0.000  -0.000   0.000  -0.000
   59        0.000  -0.000   0.000   0.000
   60        0.000   0.000  -0.000   0.000
[...]
  114        0.000   0.000   0.000   0.000
  115        0.000   0.000   0.000   0.000
  116       -0.000  -0.000   0.000  -0.000
  117       -0.000  -0.000   0.000  -0.000
  118       -0.000  -0.000   0.000  -0.000
  119       -0.000  -0.000   0.000  -0.000
  120       -0.000  -0.000   0.000  -0.000
  121       -0.000   0.000   0.000   0.000
  122       -0.000  -0.000   0.000  -0.000
  123       -0.000  -0.000   0.000  -0.000
  124        0.000   0.000   0.000   0.000
  125        0.000   0.000   0.000   0.000
  126       -0.000  -0.000   0.000  -0.000
  127       -0.000  -0.000   0.000  -0.000
  128       -0.000  -0.000   0.000  -0.000
tot          0.000   0.000  -0.000   0.000