 vasp.5.4.4.18Apr17-6-g9f103f2a35 (build Nov 17 2021 14:08:04) gamma-only

 executed on             LinuxIFC date 2022.03.05  16:38:53

 INCAR:
 POTCAR:    PAW_PBE Ga 08Apr2002
 POTCAR:    PAW_PBE N 08Apr2002
 POTCAR:    PAW_PBE C 08Apr2002
 POTCAR:    PAW_PBE Ga 08Apr2002
   VRHFIN =Ga: s2p1

   TITEL  = PAW_PBE Ga 08Apr2002
   POMASS =   69.723; ZVAL   =    3.000    mass and valenz
   ENMAX  =  134.678; ENMIN  =  101.009 eV

 POTCAR:    PAW_PBE N 08Apr2002
   VRHFIN =N: s2p3

[...]

 POTCAR:    PAW_PBE C 08Apr2002
   VRHFIN =C: s2p2

   TITEL  = PAW_PBE C 08Apr2002
   POMASS =   12.011; ZVAL   =    4.000    mass and valenz
   ENMAX  =  400.000; ENMIN  =  300.000 eV

  PAW_PBE Ga 08Apr2002                  :
  PAW_PBE N 08Apr2002                   :
  PAW_PBE C 08Apr2002                   :

 POSCAR: C_N1
  positions in direct lattice
  velocities in cartesian coordinates
 exchange correlation table for  LEXCH =        8
   RHO(1)=    0.500       N(1)  =     2000
   RHO(2)=  100.500       N(2)  =     4000

 ion  position               nearest neighbor table
   1  0.000  0.167  0.249- 128 1.94  67 1.98 113 1.98  65 1.98  50 3.15   2 3.15   4 3.15  49 3.18
                            17 3.18  59 3.18  11 3.18  51 3.18   3 3.18  54 3.21   6 3.21   8 3.21
   2  0.124  0.084  0.001- 128 1.93  74 1.98  80 1.98  69 1.98   5 3.14   1 3.15  50 3.16   4 3.16
                            17 3.17  11 3.17  12 3.18  20 3.18  21 3.19  15 3.19  18 3.21  28 3.21
   3  0.124  0.416  0.250-  67 1.94  66 1.95  83 1.96  73 1.96  20 3.17  51 3.17   4 3.17   1 3.18
                            10 3.18  24 3.18  14 3.18   8 3.19  17 3.19   9 3.19  19 3.20  25 3.20
   4  0.000  0.332  0.001- 128 1.93 114 1.98  66 1.98  71 1.98   5 3.14   1 3.15  50 3.16   2 3.16
                            51 3.17   3 3.17  20 3.18  52 3.18  55 3.19   7 3.19  58 3.22  10 3.22
   5  0.000  0.167  0.754-  71 1.95 117 1.95  69 1.95  68 1.97  50 3.14   2 3.14   4 3.14  54 3.19
                             6 3.19   8 3.19  53 3.19  21 3.19  63 3.19  15 3.19  55 3.19   7 3.19
   6  0.125  0.083  0.502-  65 1.94  68 1.95  78 1.95  84 1.95  21 3.17  15 3.17  54 3.19  17 3.19
                            11 3.19   8 3.19  32 3.19  24 3.19  22 3.19  16 3.19   5 3.19   1 3.21
   7  0.125  0.417  0.751-  71 1.93  77 1.95  87 1.95  70 1.96   8 3.17  14 3.18  20 3.18  10 3.18
                            24 3.18   4 3.19  23 3.19  29 3.19  55 3.19  13 3.19   5 3.19  21 3.20
   8  0.000  0.333  0.502-  67 1.94  68 1.95 118 1.95  70 1.95  55 3.17   7 3.17  51 3.19   3 3.19
                            24 3.19  56 3.19  54 3.19   6 3.19  62 3.19  14 3.19   5 3.19   1 3.21
   9  0.000  0.667  0.250-  75 1.95 121 1.95  73 1.95  72 1.96  58 3.17  10 3.17  16 3.18  12 3.18
                            62 3.18  14 3.18  25 3.19  57 3.19  51 3.19   3 3.19  59 3.20  11 3.20
  10  0.125  0.584  0.001-  66 1.93  72 1.95  88 1.95  77 1.96  25 3.17   9 3.17  29 3.18  13 3.18
                            28 3.18   3 3.18   7 3.18  26 3.19  58 3.20  12 3.20  20 3.20   4 3.22
  11  0.125  0.918  0.250-  65 1.94  74 1.95  75 1.95  91 1.96  12 3.17  17 3.17   2 3.17   1 3.18
                            28 3.18  16 3.18  32 3.18  27 3.19   6 3.19  59 3.19   9 3.20  25 3.20
  12  0.000  0.835  0.001- 122 1.95  74 1.95  72 1.95  79 1.96  59 3.17  11 3.17  50 3.18   2 3.18
                             9 3.18  63 3.18  15 3.18  13 3.19  60 3.20  28 3.20  58 3.20  10 3.20
  13  0.000  0.667  0.751-  79 1.94 125 1.95  77 1.95  76 1.96  58 3.18  10 3.18  16 3.18  62 3.18
                            14 3.18  63 3.19  15 3.19  55 3.19   7 3.19  12 3.19  29 3.19  61 3.19
  14  0.125  0.583  0.500-  70 1.94  76 1.95  92 1.95  73 1.95  25 3.18   9 3.18   7 3.18  29 3.18
                            13 3.18   3 3.18  62 3.19  24 3.19   8 3.19  30 3.19  16 3.19  32 3.19
  15  0.125  0.916  0.751-  69 1.93  79 1.95  95 1.95  78 1.96   6 3.17  32 3.18  12 3.18  28 3.18
                            16 3.18   2 3.19  13 3.19  31 3.19  29 3.19  21 3.19   5 3.19  63 3.19
  16  0.000  0.833  0.500- 126 1.95  78 1.95  76 1.95  75 1.95   9 3.18  59 3.18  11 3.18  13 3.18
                            63 3.18  15 3.18  32 3.19  64 3.19  54 3.19   6 3.19  62 3.19  14 3.19
  17  0.249  0.166  0.250-  65 1.94  80 1.95  83 1.95  81 1.96  20 3.17  11 3.17   2 3.17   1 3.18
                            18 3.18  22 3.18  24 3.18  27 3.19   6 3.19   3 3.19  19 3.20  33 3.20
  18  0.375  0.083  0.001-  80 1.93  96 1.95  90 1.95  85 1.96  33 3.17  37 3.18  27 3.18  21 3.18
                            31 3.18  17 3.18  34 3.18  36 3.19  44 3.19  28 3.19  20 3.19   2 3.21
  19  0.375  0.416  0.250-  83 1.95  89 1.95  99 1.95  82 1.96  20 3.17  26 3.18  24 3.18  36 3.18
                            40 3.18  30 3.18  33 3.19  25 3.19  41 3.20  17 3.20   3 3.20  35 3.20
  20  0.249  0.333  0.001-  80 1.94  66 1.94  82 1.96  87 1.96   3 3.17  17 3.17  19 3.17   4 3.18
                             2 3.18   7 3.18  21 3.18  23 3.19  18 3.19  10 3.20  26 3.20  36 3.20
  21  0.250  0.167  0.751-  69 1.93  87 1.95  85 1.95  84 1.96   6 3.17  18 3.18  22 3.18  20 3.18
                            24 3.18   2 3.19  23 3.19  31 3.19  37 3.19  15 3.19   5 3.19   7 3.20
  22  0.375  0.084  0.500-  84 1.94  94 1.95 100 1.95  81 1.95  27 3.18  33 3.18  21 3.18  37 3.18
                            31 3.18  17 3.18  24 3.19  40 3.19   6 3.19  48 3.19  32 3.19  38 3.19
  23  0.375  0.416  0.751-  87 1.94  93 1.95 103 1.95  86 1.96  26 3.18  36 3.18  40 3.18  24 3.18
                            30 3.18  21 3.19   7 3.19  20 3.19  37 3.19  29 3.19  45 3.19  39 3.20
  24  0.250  0.333  0.500-  84 1.95  70 1.95  86 1.95  83 1.96  19 3.18  23 3.18   3 3.18  17 3.18
                             7 3.18  21 3.18  22 3.19   8 3.19  14 3.19   6 3.19  30 3.19  40 3.19
  25  0.250  0.667  0.250-  73 1.95  91 1.95  89 1.95  88 1.95  10 3.17  28 3.18  14 3.18  26 3.18
                            32 3.18  30 3.18   9 3.19  27 3.19  41 3.19  19 3.19  11 3.20   3 3.20
  26  0.375  0.583  0.001-  88 1.94  82 1.94 104 1.95  93 1.96  19 3.18  23 3.18  41 3.18  25 3.18
                            45 3.18  29 3.18  36 3.19  10 3.19  28 3.19  42 3.19  44 3.19  20 3.20
  27  0.375  0.917  0.251-  81 1.95  91 1.95 107 1.95  90 1.96  28 3.18  32 3.18  22 3.18  18 3.18
                            48 3.18  44 3.18  17 3.19  11 3.19  33 3.19  25 3.19  41 3.19  43 3.20
  28  0.250  0.833  0.001-  74 1.93  88 1.94  90 1.95  95 1.96  25 3.18  27 3.18  31 3.18  29 3.18
                            15 3.18  10 3.18  11 3.18  44 3.19  26 3.19  18 3.19  12 3.20   2 3.21
  29  0.250  0.667  0.751-  95 1.94  77 1.94  93 1.95  92 1.96  10 3.18  30 3.18  28 3.18  14 3.18
                            32 3.18  26 3.18   7 3.19  15 3.19  45 3.19  31 3.19  13 3.19  23 3.19
  30  0.375  0.583  0.501-  92 1.95  86 1.95 108 1.95  89 1.96  29 3.18  41 3.18  45 3.18  25 3.18
                            19 3.18  23 3.18  14 3.19  40 3.19  24 3.19  32 3.19  46 3.19  48 3.19
  31  0.375  0.917  0.751-  95 1.95  85 1.95 111 1.95  94 1.96  28 3.18  18 3.18  48 3.18  44 3.18
                            32 3.18  22 3.18  21 3.19  15 3.19  37 3.19  29 3.19  45 3.19  47 3.19
  32  0.250  0.833  0.500-  78 1.94  92 1.95  94 1.95  91 1.95  27 3.18  25 3.18  15 3.18  29 3.18
                            31 3.18  11 3.18  16 3.19   6 3.19  14 3.19  22 3.19  30 3.19  48 3.19
  33  0.500  0.167  0.250-  81 1.95  97 1.95  99 1.95  96 1.95  18 3.17  34 3.17  36 3.18  22 3.18
                            38 3.18  40 3.18  27 3.19  43 3.19  19 3.19  35 3.19  17 3.20  49 3.20
  34  0.625  0.083  0.001- 112 1.93  96 1.95 106 1.95 101 1.96  33 3.17  37 3.18  43 3.18  53 3.18
                            47 3.18  49 3.18  18 3.18  36 3.19  44 3.19  60 3.19  52 3.19  50 3.21
  35  0.625  0.416  0.250- 115 1.95 105 1.95  99 1.95  98 1.96  52 3.17  42 3.18  56 3.18  36 3.18
                            40 3.18  46 3.18  33 3.19  57 3.19  41 3.20  49 3.20  51 3.20  19 3.20
  36  0.500  0.333  0.001-  96 1.94  82 1.95  98 1.95 103 1.96  33 3.18  19 3.18  35 3.18  23 3.18
                            39 3.18  37 3.18  18 3.19  34 3.19  26 3.19  42 3.19  20 3.20  52 3.20
  37  0.500  0.167  0.750-  85 1.94 101 1.94 103 1.95 100 1.96  18 3.18  34 3.18  40 3.18  22 3.18
                            38 3.18  36 3.18  21 3.19  53 3.19  31 3.19  47 3.19  23 3.19  39 3.19
  38  0.625  0.084  0.500- 116 1.94 110 1.95 100 1.95  97 1.95  43 3.18  33 3.18  53 3.18  37 3.18
                            47 3.18  49 3.18  56 3.19  40 3.19  54 3.19  48 3.19  64 3.19  22 3.19
  39  0.625  0.416  0.751- 119 1.94 109 1.95 103 1.95 102 1.96  42 3.18  36 3.18  40 3.18  56 3.18
                            46 3.18  53 3.19  55 3.19  52 3.19  37 3.19  61 3.19  45 3.19  23 3.20
  40  0.500  0.333  0.501- 100 1.95  86 1.95 102 1.95  99 1.96  37 3.18  33 3.18  19 3.18  35 3.18
                            23 3.18  39 3.18  22 3.19  38 3.19  30 3.19  46 3.19  24 3.19  56 3.19
  41  0.500  0.667  0.251- 107 1.95  89 1.95 105 1.95 104 1.96  44 3.18  26 3.18  42 3.18  30 3.18
                            46 3.18  48 3.18  25 3.19  57 3.19  27 3.19  43 3.19  19 3.20  35 3.20
  42  0.625  0.583  0.001- 120 1.94  98 1.94 104 1.95 109 1.96  35 3.18  39 3.18  41 3.18  57 3.18
                            45 3.18  61 3.18  36 3.19  58 3.19  60 3.19  26 3.19  44 3.19  52 3.20
  43  0.625  0.917  0.251-  97 1.95 123 1.95 107 1.95 106 1.96  60 3.18  64 3.18  38 3.18  34 3.18
                            48 3.18  44 3.18  49 3.19  59 3.19  33 3.19  57 3.19  41 3.19  27 3.20
  44  0.500  0.833  0.001-  90 1.94 106 1.94 104 1.95 111 1.96  41 3.18  45 3.18  27 3.18  43 3.18
                            31 3.18  47 3.18  28 3.19  60 3.19  18 3.19  34 3.19  26 3.19  42 3.19
  45  0.500  0.667  0.751- 111 1.95  93 1.95 109 1.95 108 1.96  44 3.18  26 3.18  42 3.18  30 3.18
                            46 3.18  48 3.18  29 3.19  61 3.19  31 3.19  47 3.19  23 3.19  39 3.19
  46  0.625  0.583  0.501- 124 1.95 102 1.95 108 1.95 105 1.96  61 3.18  41 3.18  45 3.18  57 3.18
                            35 3.18  39 3.18  62 3.19  40 3.19  56 3.19  64 3.19  30 3.19  48 3.19
  47  0.625  0.917  0.751- 127 1.95 101 1.95 111 1.95 110 1.96  60 3.18  34 3.18  48 3.18  44 3.18
                            64 3.18  38 3.18  53 3.19  63 3.19  37 3.19  61 3.19  45 3.19  31 3.19
  48  0.500  0.834  0.501-  94 1.95 110 1.95 108 1.95 107 1.96  31 3.18  47 3.18  27 3.18  43 3.18
                            41 3.18  45 3.18  22 3.19  38 3.19  32 3.19  64 3.19  30 3.19  46 3.19
  49  0.751  0.166  0.250- 113 1.94 112 1.95 115 1.95  97 1.96  52 3.17  59 3.17  50 3.17   1 3.18
                            34 3.18  38 3.18  56 3.18  43 3.19  54 3.19  51 3.19  35 3.20  33 3.20
  50  0.876  0.084  0.001- 128 1.93 122 1.98 112 1.98 117 1.98   5 3.14   1 3.15   2 3.16   4 3.16
                            49 3.17  59 3.17  12 3.18  52 3.18  53 3.19  63 3.19  34 3.21  60 3.21
  51  0.876  0.416  0.250-  67 1.94 114 1.95 115 1.96 121 1.96  52 3.17   3 3.17   4 3.17   1 3.18
                            58 3.18  56 3.18  62 3.18   8 3.19  49 3.19   9 3.19  35 3.20  57 3.20
[...]
   -.310E+00 0.118E+01 -.106E+01   0.290E-01 -.128E+01 0.101E+01   0.289E+00 0.932E-01 0.615E-01
   0.705E-06 0.132E+01 0.188E+00   0.683E-05 -.135E+01 -.638E+00   0.000E+00 0.190E-01 0.456E+00
   0.231E-04 0.397E+00 0.984E+00   0.678E-05 -.303E+00 -.105E+01   0.000E+00 -.905E-01 0.564E-01
   0.133E+01 -.259E+00 0.102E+01   -.132E+01 -.141E+00 -.883E+00   -.257E-01 0.397E+00 -.129E+00
   0.232E+01 -.287E+01 0.262E+01   -.229E+01 0.297E+01 -.267E+01   -.237E-01 -.835E-01 0.440E-01
   0.534E-05 -.446E+01 0.770E-01   0.714E-05 0.435E+01 -.430E-01   0.000E+00 0.132E+00 -.228E-01
   -.385E-04 0.318E+00 0.312E+00   0.686E-05 -.242E+00 -.301E+00   0.000E+00 -.750E-01 -.766E-02
   0.473E+00 -.131E-02 0.107E+01   -.481E+00 -.103E+00 -.112E+01   0.134E-01 0.976E-01 0.508E-01
   0.137E+01 -.908E-02 -.999E+00   -.137E+01 0.340E+00 0.946E+00   -.426E-02 -.331E+00 0.627E-01
   0.114E-04 -.777E+00 0.143E+01   0.684E-05 0.797E+00 -.147E+01   0.000E+00 -.597E-04 0.277E-01
   0.391E+01 -.362E+00 0.259E+01   -.397E+01 0.315E+00 -.264E+01   0.402E-01 0.471E-01 0.441E-01
   0.111E+01 0.607E+00 0.129E+01   -.136E+01 -.353E+00 -.112E+01   0.232E+00 -.253E+00 -.169E+00
   0.786E+00 0.495E+00 0.681E+00   -.842E+00 -.519E+00 -.738E+00   0.548E-01 0.197E-01 0.488E-01
   0.394E+01 0.198E+01 0.123E-01   -.397E+01 -.201E+01 -.472E-02   0.136E-01 0.201E-01 0.367E-02
   0.997E+00 -.108E+01 -.973E+00   -.125E+01 0.918E+00 0.925E+00   0.251E+00 0.166E+00 0.579E-01
   0.478E+00 -.935E-02 0.990E+00   -.538E+00 0.591E-01 -.105E+01   0.522E-01 -.467E-01 0.503E-01
   0.558E+00 0.413E+00 0.652E+00   -.607E+00 -.426E+00 -.640E+00   0.480E-01 0.610E-02 -.182E-01
   0.830E+00 0.271E+00 0.147E+01   -.896E+00 -.323E+00 -.149E+01   0.604E-01 0.475E-01 0.142E-01
   0.783E+00 0.347E+00 0.620E+00   -.827E+00 -.292E+00 -.662E+00   0.439E-01 -.537E-01 0.386E-01
   0.224E+00 0.618E+00 0.945E+00   -.316E+00 -.636E+00 -.889E+00   0.824E-01 -.539E-03 -.600E-01
   0.893E+00 -.437E+00 0.760E+00   -.919E+00 0.465E+00 -.790E+00   0.274E-01 -.275E-01 0.244E-01
   0.341E+00 -.119E+01 0.126E+01   -.672E+00 0.125E+01 -.109E+01   0.325E+00 -.496E-01 -.169E+00
   0.331E+00 0.475E+00 0.726E+00   -.409E+00 -.401E+00 -.713E+00   0.854E-01 -.732E-01 -.169E-01
   0.167E+00 0.181E+00 0.904E+00   -.201E+00 -.210E+00 -.938E+00   0.434E-01 0.249E-01 0.270E-01
   0.524E+00 -.276E+00 0.641E+00   -.566E+00 0.305E+00 -.648E+00   0.453E-01 -.255E-01 0.236E-02
   0.330E+00 -.431E+00 0.992E+00   -.418E+00 0.424E+00 -.105E+01   0.887E-01 0.137E-01 0.520E-01
   -.222E-04 -.368E+00 0.566E+00   0.679E-05 0.325E+00 -.608E+00   0.000E+00 0.428E-01 0.390E-01
   -.111E+01 0.607E+00 0.129E+01   0.136E+01 -.353E+00 -.112E+01   -.232E+00 -.253E+00 -.169E+00
   -.786E+00 0.495E+00 0.681E+00   0.841E+00 -.519E+00 -.738E+00   -.548E-01 0.197E-01 0.488E-01
   -.434E-04 0.379E-01 0.838E+00   0.680E-05 -.554E-01 -.798E+00   0.000E+00 0.130E-01 -.410E-01
   -.336E-04 -.608E+00 0.771E+00   0.680E-05 0.526E+00 -.758E+00   0.000E+00 0.790E-01 -.192E-01
   -.478E+00 -.935E-02 0.990E+00   0.538E+00 0.591E-01 -.105E+01   -.522E-01 -.467E-01 0.503E-01
   -.558E+00 0.413E+00 0.652E+00   0.607E+00 -.426E+00 -.640E+00   -.480E-01 0.610E-02 -.182E-01
   0.128E-04 -.164E-01 0.963E+00   0.679E-05 0.239E-02 -.995E+00   0.000E+00 0.168E-01 0.245E-01
   0.238E-04 0.179E+00 0.545E+00   0.679E-05 -.177E+00 -.564E+00   0.000E+00 -.816E-02 0.225E-01
   -.223E+00 0.618E+00 0.945E+00   0.316E+00 -.636E+00 -.889E+00   -.824E-01 -.539E-03 -.600E-01
   -.893E+00 -.437E+00 0.760E+00   0.919E+00 0.465E+00 -.790E+00   -.274E-01 -.275E-01 0.244E-01
   -.632E-04 0.153E+00 0.102E+01   0.682E-05 -.756E-01 -.957E+00   0.000E+00 -.790E-01 -.718E-01
   -.357E-04 0.199E+00 0.866E+00   0.681E-05 -.190E+00 -.878E+00   0.000E+00 -.147E-01 -.372E-03
   -.167E+00 0.181E+00 0.904E+00   0.201E+00 -.210E+00 -.938E+00   -.434E-01 0.249E-01 0.270E-01
   -.524E+00 -.276E+00 0.641E+00   0.566E+00 0.305E+00 -.648E+00   -.453E-01 -.255E-01 0.236E-02
   -.717E-05 -.911E-01 0.825E+00   0.682E-05 0.871E-01 -.867E+00   0.000E+00 -.528E-02 0.322E-01
   -.391E+01 -.361E+00 0.259E+01   0.397E+01 0.315E+00 -.264E+01   -.402E-01 0.471E-01 0.441E-01
   -.780E+01 -.454E+01 -.268E+01   0.905E+01 0.525E+01 0.314E+01   -.122E+01 -.681E+00 -.432E+00
   -.179E+01 0.338E+01 0.265E+01   0.187E+01 -.335E+01 -.271E+01   -.801E-01 -.422E-01 0.495E-01
   -.394E+01 0.198E+01 0.124E-01   0.397E+01 -.201E+01 -.472E-02   -.136E-01 0.201E-01 0.367E-02
   -.997E+00 -.108E+01 -.973E+00   0.125E+01 0.918E+00 0.925E+00   -.251E+00 0.166E+00 0.579E-01
   -.144E+01 -.884E+00 0.177E+00   0.146E+01 0.866E+00 -.627E+00   0.486E-03 0.283E-01 0.455E+00
   0.310E+00 0.118E+01 -.106E+01   -.291E-01 -.128E+01 0.101E+01   -.289E+00 0.932E-01 0.615E-01
   -.830E+00 0.271E+00 0.147E+01   0.896E+00 -.323E+00 -.149E+01   -.604E-01 0.475E-01 0.142E-01
   -.783E+00 0.347E+00 0.620E+00   0.827E+00 -.292E+00 -.662E+00   -.439E-01 -.537E-01 0.386E-01
   -.133E+01 -.259E+00 0.102E+01   0.132E+01 -.141E+00 -.883E+00   0.257E-01 0.397E+00 -.129E+00
   -.232E+01 -.287E+01 0.262E+01   0.229E+01 0.297E+01 -.267E+01   0.237E-01 -.835E-01 0.440E-01
   -.341E+00 -.119E+01 0.126E+01   0.672E+00 0.125E+01 -.109E+01   -.325E+00 -.496E-01 -.169E+00
[...]
   -.343E+01 0.159E+01 0.160E+01   0.376E+01 -.177E+01 -.155E+01   -.294E+00 0.166E+00 -.423E-01
   -.174E+01 -.511E+00 0.648E-01   0.203E+01 0.455E+00 0.264E+00   -.259E+00 0.467E-01 -.290E+00
   -.466E+01 -.270E+01 -.746E+01   0.504E+01 0.288E+01 0.900E+01   -.343E+00 -.160E+00 -.138E+01
   -.636E+00 0.133E+01 0.471E-01   0.843E+00 -.148E+01 0.289E+00   -.185E+00 0.137E+00 -.294E+00
   -.337E+01 0.156E+01 -.263E+01   0.360E+01 -.169E+01 0.316E+01   -.205E+00 0.119E+00 -.480E+00
   -.151E+01 0.428E+00 -.783E+00   0.173E+01 -.400E+00 0.993E+00   -.195E+00 -.298E-01 -.191E+00
   -.106E+01 0.119E+01 0.480E+00   0.115E+01 -.164E+01 -.408E+00   -.805E-01 0.417E+00 -.610E-01
   -.488E+01 -.779E+01 -.733E+00   0.504E+01 0.915E+01 0.578E+00   -.150E+00 -.122E+01 0.149E+00
   -.188E+01 -.110E+01 0.224E+00   0.234E+01 0.125E+01 -.155E+00   -.419E+00 -.140E+00 -.584E-01
   -.808E+00 0.227E+00 -.105E+00   0.979E+00 -.163E+00 0.371E+00   -.154E+00 -.645E-01 -.247E+00
   -.126E+01 0.125E+01 -.154E+01   0.140E+01 -.151E+01 0.197E+01   -.128E+00 0.237E+00 -.385E+00
   -.139E+01 -.893E+00 0.885E-01   0.152E+01 0.117E+01 0.244E+00   -.111E+00 -.260E+00 -.293E+00
   -.175E+01 -.130E+01 -.126E+01   0.202E+01 0.143E+01 0.166E+01   -.245E+00 -.115E+00 -.363E+00
   0.665E-03 -.191E+00 -.127E+01   0.635E-05 0.206E+00 0.146E+01   0.000E+00 -.100E-01 -.179E+00
   -.310E-03 -.897E-02 0.139E+02   0.290E-12 0.169E-12 -.266E-13   0.130E-14 0.668E-03 -.132E+02

 POSITION                                       TOTAL-FORCE (eV/Angst)
      0.00000      1.84247      2.57542         0.000000     -0.001144     -0.003972
      1.57806      0.93117      0.00993         0.001552      0.007470      0.017695
      1.58390      4.60067      2.59124         0.003235      0.002268      0.003077
      0.00000      3.66613      0.01007         0.000000      0.000867      0.019528
      0.00000      1.84239      7.81131         0.000000     -0.001202      0.002083
      1.59458      0.92181      5.20394        -0.010695      0.007692      0.001051
      1.59559      4.60930      7.77987         0.004575     -0.001983      0.008104
      0.00000      3.68485      5.20411         0.000000     -0.013770      0.001340
      0.00000      7.37321      2.59388         0.000000      0.005345     -0.011756
      1.59800      6.45890      0.00754        -0.008702     -0.006833      0.008038
      1.59525     10.14632      2.59171         0.006233      0.002268      0.003821
      0.00000      9.22862      0.01423         0.000000      0.003572      0.010931
      0.00000      7.37300      7.78025         0.000000      0.002626      0.004216
      1.59494      6.44820      5.18482         0.007208     -0.006743     -0.005011
      1.59701     10.13204      7.77961         0.006117      0.004007      0.005677
      0.00000      9.21271      5.18282         0.000000      0.016734     -0.002424
      3.17969      1.83537      2.59169         0.001337      0.001152      0.000939
      4.79152      0.92132      0.00621        -0.014968      0.003311      0.005095
      4.78317      4.60287      2.59372         0.001524     -0.003471     -0.006303
      3.17911      3.67900      0.01452         0.003749     -0.002090      0.010407
      3.19282      1.84103      7.77947        -0.002339      0.004022      0.005837
      4.78543      0.92343      5.18475        -0.005676      0.003603     -0.006034
      4.78437      4.60341      7.78055         0.001045     -0.005064     -0.005551
      3.18982      3.68495      5.18298        -0.002416     -0.003683     -0.002949
      3.18959      7.37046      2.59466         0.002357      0.001506     -0.000906
      4.78757      6.44455      0.00722        -0.009377     -0.015516     -0.001015
      4.78517     10.13527      2.59637         0.004618      0.000176     -0.003327
      3.19743      9.21008      0.00633        -0.006610      0.010180      0.004583
      3.19189      7.37006      7.77709         0.008098      0.003036     -0.002548
      4.78610      6.44886      5.18672         0.010369     -0.004226     -0.004740
      4.78637     10.13462      7.77793         0.004607      0.002875     -0.002735
      3.18917      9.21400      5.18474         0.001621      0.004203     -0.005894
      6.38289      1.84104      2.59455         0.000000     -0.001134      0.000108
      7.97426      0.92132      0.00621         0.014968      0.003311      0.005095
      7.98261      4.60287      2.59372        -0.001524     -0.003471     -0.006303
      6.38289      3.68276      0.00801         0.000000     -0.003594      0.000882
      6.38289      1.84181      7.77692         0.000000     -0.004536     -0.003791
      7.98035      0.92343      5.18475         0.005676      0.003603     -0.006034
      7.98140      4.60341      7.78055        -0.001045     -0.005064     -0.005551
      6.38289      3.68539      5.18667         0.000000      0.002793     -0.005080
      6.38289      7.36941      2.59596         0.000000     -0.005835      0.005125
      7.97821      6.44455      0.00722         0.009377     -0.015516     -0.001015
      7.98060     10.13527      2.59637        -0.004618      0.000176     -0.003327
      6.38289      9.21128      0.00702         0.000000     -0.000343     -0.004062
      6.38289      7.36958      7.77885         0.000000     -0.005521     -0.010779
      7.97968      6.44886      5.18672        -0.010369     -0.004226     -0.004740
      7.97941     10.13462      7.77793        -0.004607      0.002875     -0.002735
      6.38289      9.21537      5.18691         0.000000     -0.010160     -0.007932
      9.58609      1.83537      2.59169        -0.001337      0.001152      0.000939
     11.18772      0.93117      0.00993        -0.001552      0.007470      0.017695
     11.18187      4.60067      2.59124        -0.003235      0.002268      0.003077
      9.58667      3.67900      0.01452        -0.003749     -0.002090      0.010407
      9.57295      1.84103      7.77947         0.002339      0.004022      0.005837
     11.17120      0.92181      5.20394         0.010695      0.007692      0.001051
     11.17019      4.60930      7.77987        -0.004575     -0.001983      0.008104
      9.57596      3.68495      5.18298         0.002416     -0.003683     -0.002949
      9.57619      7.37046      2.59466        -0.002357      0.001506     -0.000906
     11.16778      6.45890      0.00754         0.008702     -0.006833      0.008038
     11.17053     10.14632      2.59171        -0.006233      0.002268      0.003821
      9.56834      9.21008      0.00633         0.006610      0.010180      0.004583
[...]
     11.16037      4.63583      0.63829         0.011956      0.004750      0.005259
      9.57539      3.68323      3.22767         0.006415      0.000369     -0.000194
      9.56670      1.84816      5.82394         0.000375      0.002090      0.002516
     11.15183      0.90949      8.39063         0.001733     -0.006116      0.013871
     11.16201      4.61192      5.82401         0.002707      0.011483      0.004749
      9.57288      3.68457      8.41551         0.004361      0.001220     -0.001331
      9.56320      7.37135      0.64011        -0.001221      0.001476     -0.006368
     11.16920      6.45015      3.23031         0.002956      0.001636      0.000584
     11.14952     10.11446      0.63856         0.001786      0.013922      0.006787
      9.57238      9.21037      3.23074         0.001390     -0.002915     -0.001081
      9.57245      7.37150      5.82052         0.000615     -0.001427     -0.012760
     11.16733      6.45470      8.41064        -0.000666      0.005663     -0.002561
     11.16982     10.12631      5.82399         0.001543     -0.006374      0.002982
      9.56833      9.20783      8.41015        -0.003535     -0.004863     -0.003599
      0.00000      1.84329      0.63755         0.000000      0.006597      0.010653
    total drift:                               -0.000310     -0.014383     -1.277746

  FREE ENERGIE OF THE ION-ELECTRON SYSTEM (eV)
  free  energy   TOTEN  =      -981.98883595 eV

  energy  without entropy=     -981.98883595  energy(sigma->0) =     -981.98883595

 total charge

[...]

 magnetization (x)

# of ion       s       p       d       tot
    1       -0.000  -0.000   0.000  -0.000
    2       -0.000  -0.000   0.000  -0.000
    3       -0.000  -0.000  -0.000  -0.000
    4       -0.000  -0.000   0.000  -0.000
    5       -0.000  -0.000  -0.000  -0.000
    6       -0.000  -0.000  -0.000  -0.000
    7       -0.000  -0.000  -0.000  -0.000
    8       -0.000  -0.000  -0.000  -0.000
    9       -0.000  -0.000  -0.000  -0.000
   10       -0.000  -0.000  -0.000  -0.000
   11       -0.000  -0.000   0.000  -0.000
   12       -0.000  -0.000  -0.000  -0.000
   13       -0.000  -0.000  -0.000  -0.000
   14       -0.000  -0.000  -0.000  -0.000
   15       -0.000  -0.000  -0.000  -0.000
   16       -0.000  -0.000  -0.000  -0.000
   17       -0.000  -0.000  -0.000  -0.000
   18       -0.000  -0.000  -0.000  -0.000
   19       -0.000  -0.000  -0.000  -0.000
   20       -0.000  -0.000  -0.000  -0.000
   21       -0.000  -0.000  -0.000  -0.000
   22       -0.000  -0.000  -0.000  -0.000
   23       -0.000  -0.000  -0.000  -0.000
   24       -0.000  -0.000  -0.000  -0.000
   25       -0.000  -0.000  -0.000  -0.000
   26       -0.000  -0.000   0.000  -0.000
   27       -0.000  -0.000  -0.000  -0.000
   28       -0.000  -0.000  -0.000  -0.000
   29       -0.000  -0.000  -0.000  -0.000
   30       -0.000  -0.000  -0.000  -0.000
   31       -0.000  -0.000  -0.000  -0.000
   32       -0.000  -0.000  -0.000  -0.000
   33       -0.000  -0.000  -0.000  -0.000
   34       -0.000  -0.000  -0.000  -0.000
   35       -0.000  -0.000  -0.000  -0.000
   36       -0.000  -0.000  -0.000  -0.000
   37       -0.000  -0.000  -0.000  -0.000
   38       -0.000  -0.000  -0.000  -0.000
   39       -0.000  -0.000  -0.000  -0.000
   40       -0.000  -0.000  -0.000  -0.000
   41       -0.000  -0.000  -0.000  -0.000
   42       -0.000  -0.000  -0.000  -0.000
   43       -0.000  -0.000  -0.000  -0.000
   44       -0.000  -0.000  -0.000  -0.000
   45       -0.000  -0.000  -0.000  -0.000
   46       -0.000  -0.000  -0.000  -0.000
   47       -0.000  -0.000  -0.000  -0.000
   48       -0.000  -0.000  -0.000  -0.000
   49       -0.000  -0.000  -0.000  -0.000
   50       -0.000  -0.000   0.000  -0.000
   51       -0.000  -0.000  -0.000  -0.000
   52       -0.000  -0.000  -0.000  -0.000
   53       -0.000  -0.000  -0.000  -0.000
   54       -0.000  -0.000  -0.000  -0.000
   55       -0.000  -0.000  -0.000  -0.000
   56       -0.000  -0.000  -0.000  -0.000
   57       -0.000  -0.000  -0.000  -0.000
   58       -0.000  -0.000  -0.000  -0.000
   59       -0.000  -0.000  -0.000  -0.000
   60       -0.000  -0.000  -0.000  -0.000
[...]
  114        0.000   0.000   0.000   0.000
  115        0.000   0.000   0.000   0.000
  116        0.000   0.000   0.000   0.000
  117        0.000   0.000   0.000   0.000
  118        0.000   0.000   0.000   0.000
  119        0.000   0.000   0.000   0.000
  120        0.000   0.000   0.000   0.000
  121        0.000   0.000   0.000   0.000
  122        0.000   0.000   0.000   0.000
  123        0.000   0.000   0.000   0.000
  124        0.000   0.000   0.000   0.000
  125        0.000   0.000   0.000   0.000
  126        0.000   0.000   0.000   0.000
  127        0.000   0.000   0.000   0.000
  128        0.000   0.000   0.000   0.000
tot         -0.006   0.009  -0.000   0.002