 vasp.5.4.4.18Apr17-6-g9f103f2a35 (build Mar 26 2021 15:05:33) gamma-only

 executed on             LinuxIFC date 2022.01.30  04:31:01

 INCAR:
 POTCAR:   PAW_PBE Zn 06Sep2000
 POTCAR:   PAW_PBE Ge_d 06Sep2000
 POTCAR:    PAW_PBE P 17Jan2003
 POTCAR:   PAW_PBE Zn 06Sep2000
   VRHFIN =Zn: d10 p2

   TITEL  = PAW_PBE Zn 06Sep2000
   POMASS =   65.390; ZVAL   =   12.000    mass and valenz
   ENMAX  =  276.727; ENMIN  =  207.545 eV
   QCUT   =   -4.510; QGAM   =    9.020    optimization parameters

   Description
     l     E      TYP  RCUT    TYP  RCUT
     2   .000     23  2.300
     2   .000     23  2.300
     0   .000     23  2.300
     0   .000     23  2.300
     1  -.200     23  2.300
     1   .000     23  2.300
     3   .000      7   .000

 POTCAR:   PAW_PBE Ge_d 06Sep2000
   VRHFIN =Ge: 3d4s4p

   TITEL  = PAW_PBE Ge_d 06Sep2000
   POMASS =   72.610; ZVAL   =   14.000    mass and valenz
   ENMAX  =  287.568; ENMIN  =  215.676 eV
   QCUT   =   -4.597; QGAM   =    9.195    optimization parameters

[...]

 POTCAR:    PAW_PBE P 17Jan2003
   VRHFIN =P : s2p3

   TITEL  = PAW_PBE P 17Jan2003
   POMASS =   30.974; ZVAL   =    5.000    mass and valenz
   ENMAX  =  270.000; ENMIN  =  191.280 eV
   QCUT   =   -4.330; QGAM   =    8.659    optimization parameters

   Description
     l     E      TYP  RCUT    TYP  RCUT
     0   .000     23  1.900
     0   .000     23  1.900
     1   .000     23  1.900
     1   .000     23  1.900
     2   .000     23  1.900

 PAW_PBE Zn 06Sep2000                   :
 PAW_PBE Ge_d 06Sep2000                 :
  PAW_PBE P 17Jan2003                   :

 POSCAR: Cubic_cell
  positions in direct lattice
 exchange correlation table for  LEXCH =        8
   RHO(1)=    0.500       N(1)  =     2000
   RHO(2)=  100.500       N(2)  =     4000

 ion  position               nearest neighbor table
   1  1.000  1.000  0.250-  97 2.37 164 2.37  99 2.37 162 2.37
   2  0.000  0.000  0.000-  99 2.37 186 2.37 173 2.37 120 2.37
   3  0.167  0.625  0.375- 101 2.37 128 2.37 127 2.37 102 2.37
   4  0.167  0.875  0.375-  97 2.37 100 2.37 103 2.37 102 2.37
   5  0.000  0.500  0.750- 105 2.37 172 2.37 107 2.37 170 2.37
   6  0.000  0.500  0.500- 128 2.37 165 2.37 107 2.37 178 2.37
   7  0.167  0.125  0.875- 109 2.37 120 2.37 110 2.37 119 2.37
   8  0.167  0.375  0.875- 105 2.37 108 2.37 110 2.37 111 2.37
   9  1.000  0.250  0.500- 113 2.37 180 2.37 178 2.37 115 2.37
  10  1.000  0.250  0.250- 189 2.37 112 2.37 162 2.37 115 2.37
  11  0.167  0.875  0.625- 117 2.37 104 2.37 103 2.37 118 2.37
  12  0.167  0.125  0.625- 113 2.37 116 2.37 119 2.37 118 2.37
  13  0.000  0.750  0.000- 121 2.37 188 2.37 186 2.37 123 2.37
  14  0.000  0.750  0.750- 104 2.37 181 2.37 123 2.37 170 2.37
  15  0.167  0.375  0.125- 125 2.37 112 2.37 126 2.37 111 2.37
  16  0.167  0.625  0.125- 124 2.37 121 2.37 127 2.37 126 2.37
  17  0.333  1.000  0.250- 129 2.37 100 2.37 131 2.37  98 2.37
  18  0.333  0.000  1.000- 109 2.37 152 2.37 122 2.37 131 2.37
  19  0.500  0.625  0.375- 133 2.37 160 2.37 159 2.37 134 2.37
  20  0.500  0.875  0.375- 132 2.37 129 2.37 135 2.37 134 2.37
  21  0.333  0.500  0.750- 137 2.37 108 2.37 106 2.37 139 2.37
  22  0.333  0.500  0.500- 101 2.37 160 2.37 114 2.37 139 2.37
  23  0.500  0.125  0.875- 141 2.37 152 2.37 151 2.37 142 2.37
  24  0.500  0.375  0.875- 137 2.37 140 2.37 143 2.37 142 2.37
  25  0.333  0.250  0.500- 145 2.37 116 2.37 114 2.37 147 2.37
  26  0.333  0.250  0.250- 125 2.37 144 2.37 147 2.37  98 2.37
  27  0.500  0.875  0.625- 149 2.37 136 2.37 150 2.37 135 2.37
  28  0.500  0.125  0.625- 145 2.37 148 2.37 151 2.37 150 2.37
  29  0.333  0.750  0.000- 153 2.37 124 2.37 122 2.37 155 2.37
  30  0.333  0.750  0.750- 117 2.37 136 2.37 155 2.37 106 2.37
  31  0.500  0.375  0.125- 157 2.37 144 2.37 143 2.37 158 2.37
  32  0.500  0.625  0.125- 153 2.37 156 2.37 158 2.37 159 2.37
  33  0.667  1.000  0.250- 132 2.37 161 2.37 163 2.37 130 2.37
  34  0.667  0.000  1.000- 141 2.37 184 2.37 154 2.37 163 2.37
  35  0.833  0.625  0.375- 165 2.37 192 2.37 166 2.37 191 2.37
  36  0.833  0.875  0.375- 161 2.37 164 2.37 166 2.37 167 2.37
  37  0.667  0.500  0.750- 169 2.37 140 2.37 138 2.37 171 2.37
  38  0.667  0.500  0.500- 133 2.37 192 2.37 171 2.37 146 2.37
  39  0.833  0.125  0.875- 184 2.37 173 2.37 174 2.37 183 2.37
  40  0.833  0.375  0.875- 169 2.37 172 2.37 175 2.37 174 2.37
  41  0.667  0.250  0.500- 177 2.37 148 2.37 179 2.37 146 2.37
  42  0.667  0.250  0.250- 176 2.37 157 2.37 130 2.37 179 2.37
  43  0.833  0.875  0.625- 181 2.37 168 2.37 182 2.37 167 2.37
  44  0.833  0.125  0.625- 177 2.37 180 2.37 183 2.37 182 2.37
  45  0.667  0.750  0.000- 156 2.37 185 2.37 154 2.37 187 2.37
  46  0.667  0.750  0.750- 149 2.37 168 2.37 138 2.37 187 2.37
  47  0.833  0.375  0.125- 189 2.37 176 2.37 190 2.37 175 2.37
  48  0.833  0.625  0.125- 185 2.37 188 2.37 190 2.37 191 2.37
  49  0.167  0.875  0.125-  99 2.34 122 2.34 100 2.34 121 2.34
  50  0.167  0.125  0.125-  99 2.34  98 2.34 112 2.34 109 2.34
  51  1.000  0.750  0.500- 167 2.34 102 2.34 104 2.34 165 2.34
  52  0.000  0.750  0.250- 102 2.34 191 2.34 121 2.34 164 2.34
  53  0.167  0.375  0.625- 114 2.34 107 2.34 108 2.34 113 2.34
  54  0.167  0.625  0.625- 106 2.34 107 2.34 104 2.34 101 2.34
  55  1.000  0.250  1.000- 110 2.34 175 2.34 112 2.34 173 2.34
  56  0.000  0.250  0.750- 110 2.34 183 2.34 113 2.34 172 2.34
  57  0.167  0.125  0.375- 115 2.34  98 2.34  97 2.34 116 2.34
  58  0.167  0.375  0.375- 114 2.34 115 2.34 128 2.34 125 2.34
  59  0.000  0.000  0.750- 183 2.34 118 2.34 181 2.34 120 2.34
  60  0.000  1.000  0.500- 118 2.34 167 2.34 180 2.34  97 2.34
[...]
 178  0.915  0.375  0.500-  85 2.34  90 2.34   9 2.37   6 2.37
 179  0.751  0.250  0.375-  90 2.34  89 2.34  41 2.37  42 2.37
 180  0.917  0.124  0.499-  89 2.34  60 2.34   9 2.37  44 2.37
 181  0.917  0.876  0.751-  94 2.34  59 2.34  14 2.37  43 2.37
 182  0.749  0.000  0.625-  92 2.34  91 2.34  44 2.37  43 2.37
 183  0.918  0.125  0.750-  59 2.34  56 2.34  44 2.37  39 2.37
 184  0.750  0.999  0.874-  94 2.34  91 2.34  39 2.37  34 2.37
 185  0.750  0.751  0.126-  81 2.34  84 2.34  48 2.37  45 2.37
 186  0.915  0.875  0.000-  81 2.34  94 2.34   2 2.37  13 2.37
 187  0.751  0.750  0.875-  94 2.34  93 2.34  45 2.37  46 2.37
 188  0.917  0.624  0.999-  93 2.34  64 2.34  48 2.37  13 2.37
 189  0.917  0.376  0.251-  90 2.34  63 2.34  47 2.37  10 2.37
 190  0.749  0.500  0.125-  95 2.34  96 2.34  48 2.37  47 2.37
 191  0.918  0.625  0.250-  63 2.34  52 2.34  48 2.37  35 2.37
 192  0.750  0.499  0.374-  90 2.34  95 2.34  35 2.37  38 2.37

  LATTYP: Found a base centered orthorhombic cell.
 ALAT       =    21.4900005599
 B/A-ratio  =     1.0177756885
 C/A-ratio  =     0.7633317623

  Lattice vectors:

 A1 = (   0.0000000000,  15.3313770000,   0.0000000000)
 A2 = (   0.0000000000,  -0.2701040000, -15.3289980000)
 A3 = ( -16.4040000000,   0.0000000000,   0.0000000000)

Analysis of symmetry for initial positions (statically):
 Subroutine PRICEL returns:
 Original cell was already a primitive cell.

 Routine SETGRP: Setting up the symmetry group for a
 base centered orthorhombic supercell.

 Subroutine GETGRP returns: Found  2 space group operations
 (whereof  2 operations were pure point group operations)
 out of a pool of  8 trial point group operations.

The static configuration has the point symmetry C_2 .

Analysis of symmetry for dynamics (positions and initial velocities):
 Subroutine PRICEL returns:
 Original cell was already a primitive cell.

[...]

The dynamic configuration has the point symmetry C_2 .

Analysis of structural, dynamic, and magnetic symmetry:
 Subroutine PRICEL returns:
 Original cell was already a primitive cell.

 Routine SETGRP: Setting up the symmetry group for a
 base centered orthorhombic supercell.

 Subroutine GETGRP returns: Found  2 space group operations
 (whereof  2 operations were pure point group operations)
 out of a pool of  8 trial point group operations.

The magnetic configuration has the point symmetry C_2 .

 Subroutine INISYM returns: Found  2 space group operations
 (whereof  2 operations are pure point group operations),
 and found     1 'primitive' translations

 KPOINTS: Generate by dasp

Automatic generation of k-mesh.
Space group operators:
 irot       det(A)        alpha          n_x          n_y          n_z        tau_x        tau_y        tau_z
    1     1.000000     0.000000     1.000000     0.000000     0.000000     0.000000     0.000000     0.000000
    2     1.000000   179.999999     0.000000    -0.700850     0.713308     0.000000     0.000000     0.000000

 Subroutine IBZKPT returns following result:

 Found      1 irreducible k-points:

 Following reciprocal coordinates:
            Coordinates               Weight
  0.000000  0.000000  0.000000      1.000000

 Following cartesian coordinates:
            Coordinates               Weight
  0.000000  0.000000  0.000000      1.000000

 Subroutine IBZKPT_HF returns following result:

 Found      1 k-points in 1st BZ
 the following      1 k-points will be used (e.g. in the exchange kernel)
 Following reciprocal coordinates:   # in IRBZ
  0.000000  0.000000  0.000000    1.00000000   1 t-inv F

 SYSTEM =  unknown system
 POSCAR =  Cubic_cell

 Startparameter for this run:
   NWRITE =      2    write-flag & timer
   PREC   = accura    normal or accurate (medium, high low for compatibility)
   ISTART =      0    job   : 0-new  1-cont  2-samecut
   ICHARG =      1    charge: 1-file 2-atom 10-const
   ISPIN  =      2    spin polarized calculation?
   LNONCOLLINEAR =      F non collinear calculations
   LSORBIT =      F    spin-orbit coupling
   INIWAV =      1    electr: 0-lowe 1-rand  2-diag
   LASPH  =      F    aspherical Exc in radial PAW
   METAGGA=      F    non-selfconsistent MetaGGA calc.

 Electronic Relaxation 1
   ENCUT  =  373.0 eV  27.41 Ry    5.24 a.u.  25.83 24.14 24.14*2*pi/ulx,y,z
   ENINI  =  373.0     initial cutoff
   ENAUG  =  575.9 eV  augmentation charge cutoff
   NELM   =    200;   NELMIN=  2; NELMDL= -5     # of ELM steps
   EDIFF  = 0.1E-04   stopping-criterion for ELM
   LREAL  =      F    real-space projection
   NLSPLINE    = F    spline interpolate recip. space projectors
   LCOMPAT=      F    compatible to vasp.4.4
   GGA_COMPAT  = T    GGA compatible to vasp.4.4-vasp.4.6
   LMAXPAW     = -100 max onsite density
   LMAXMIX     =    2 max onsite mixed and CHGCAR
   VOSKOWN=      0    Vosko Wilk Nusair interpolation
   ROPT   =    0.00000   0.00000   0.00000
 Ionic relaxation
   EDIFFG = -.1E-01   stopping-criterion for IOM
   NSW    =      0    number of steps for IOM
   NBLOCK =      1;   KBLOCK =      1    inner block; outer block
   IBRION =     -1    ionic relax: 0-MD 1-quasi-New 2-CG
   NFREE  =      0    steps in history (QN), initial steepest desc. (CG)
   ISIF   =      0    stress and relaxation
   IWAVPR =     10    prediction:  0-non 1-charg 2-wave 3-comb
   ISYM   =      3    0-nonsym 1-usesym 2-fastsym
   LCORR  =      T    Harris-Foulkes like correction to forces

   POTIM  = 0.5000    time-step for ionic-motion
   TEIN   =    0.0    initial temperature
   TEBEG  =    0.0;   TEEND  =   0.0 temperature during run
[...]
   0.107E-01 0.172E+00 -.144E+00   -.105E-01 -.150E+00 0.120E+00   -.997E-05 -.214E-01 0.133E-01
   0.163E-02 -.139E+00 0.121E+00   -.187E-02 0.115E+00 -.963E-01   0.380E-03 0.184E-01 -.184E-01
   -.209E-02 0.114E+00 -.125E+00   0.182E-02 -.902E-01 0.101E+00   0.173E-03 -.182E-01 0.185E-01
   0.984E-02 -.159E+00 0.127E+00   -.977E-02 0.135E+00 -.102E+00   -.482E-04 0.124E-01 -.131E-01
   0.142E-01 0.143E+00 -.176E+00   -.152E-01 -.118E+00 0.153E+00   0.894E-03 -.130E-01 0.222E-01
   -.112E-01 -.269E-02 0.202E+00   0.120E-01 -.241E-01 -.179E+00   -.269E-03 0.202E-01 -.178E-01
   0.619E-02 0.123E+00 -.120E+00   -.636E-02 -.995E-01 0.958E-01   -.173E-03 -.182E-01 0.185E-01
   0.933E-02 -.126E+00 0.157E+00   -.897E-02 0.101E+00 -.132E+00   -.155E-03 0.127E-01 -.129E-01
   -.154E-01 0.173E+00 -.141E+00   0.152E-01 -.149E+00 0.118E+00   0.118E-03 -.122E-01 0.224E-01
   -.138E-01 -.153E+00 0.130E+00   0.142E-01 0.129E+00 -.105E+00   -.678E-03 0.180E-01 -.186E-01
   -.477E-02 0.118E+00 -.112E+00   0.494E-02 -.946E-01 0.880E-01   -.487E-04 -.177E-01 0.183E-01
   0.820E-02 -.134E+00 0.138E+00   -.851E-02 0.111E+00 -.115E+00   0.000E+00 0.223E-01 -.227E-01
   0.519E-02 0.138E+00 -.153E+00   -.465E-02 -.115E+00 0.128E+00   -.691E-03 -.220E-01 0.133E-01
   -.894E-03 -.130E+00 0.140E+00   0.120E-02 0.106E+00 -.116E+00   -.321E-03 0.180E-01 -.187E-01
   -.566E-02 0.145E+00 -.147E+00   0.575E-02 -.122E+00 0.123E+00   0.195E-04 -.180E-01 0.183E-01
   0.590E-02 -.144E+00 0.151E+00   -.616E-02 0.120E+00 -.128E+00   0.000E+00 0.223E-01 -.227E-01
   0.638E-02 0.148E+00 -.139E+00   -.572E-02 -.125E+00 0.114E+00   -.766E-03 -.221E-01 0.131E-01
   -.667E-03 -.138E+00 0.134E+00   0.674E-03 0.114E+00 -.110E+00   0.379E-03 0.184E-01 -.182E-01
   0.168E-02 0.141E+00 -.139E+00   -.113E-02 -.117E+00 0.114E+00   -.502E-03 -.190E-01 0.187E-01
   0.185E-02 -.147E+00 0.139E+00   -.207E-02 0.123E+00 -.115E+00   0.143E-03 0.126E-01 -.129E-01
   -.156E-02 0.137E+00 -.149E+00   0.489E-03 -.112E+00 0.125E+00   0.766E-03 -.127E-01 0.223E-01
   -.132E-01 -.133E+00 0.156E+00   0.131E-01 0.109E+00 -.132E+00   0.427E-03 0.183E-01 -.183E-01
   -.539E-02 0.142E+00 -.138E+00   0.511E-02 -.118E+00 0.113E+00   0.428E-03 -.190E-01 0.187E-01
   0.570E-02 -.136E+00 0.150E+00   -.580E-02 0.111E+00 -.126E+00   -.143E-03 0.127E-01 -.128E-01
   0.816E-03 0.148E+00 -.139E+00   -.183E-02 -.124E+00 0.116E+00   0.691E-03 -.129E-01 0.222E-01
   0.120E-01 -.153E+00 0.131E+00   -.118E-01 0.129E+00 -.107E+00   -.427E-03 0.180E-01 -.186E-01
   -.200E-02 0.116E+00 -.113E+00   0.203E-02 -.918E-01 0.891E-01   0.487E-04 -.180E-01 0.180E-01
   0.256E-02 -.128E+00 0.132E+00   -.251E-02 0.104E+00 -.108E+00   0.313E-04 0.223E-01 -.228E-01
   0.113E-01 0.143E+00 -.176E+00   -.110E-01 -.120E+00 0.152E+00   -.118E-03 -.221E-01 0.126E-01
   -.246E-03 -.131E+00 0.139E+00   0.522E-03 0.107E+00 -.115E+00   -.379E-03 0.178E-01 -.187E-01
   -.130E-02 0.145E+00 -.146E+00   0.130E-02 -.121E+00 0.122E+00   -.195E-04 -.180E-01 0.183E-01
   -.138E+00 -.120E+00 0.105E+00   0.141E+00 0.959E-01 -.788E-01   -.181E-02 0.225E-01 -.238E-01
   -.202E-01 0.177E+00 -.146E+00   0.216E-01 -.154E+00 0.121E+00   -.894E-03 -.220E-01 0.134E-01
   0.831E-04 -.137E+00 0.132E+00   -.550E-04 0.113E+00 -.108E+00   0.321E-03 0.184E-01 -.183E-01
   -.132E-04 0.131E+00 -.145E+00   0.430E-03 -.107E+00 0.120E+00   -.428E-03 -.184E-01 0.193E-01
   -.102E-01 -.155E+00 0.130E+00   0.101E-01 0.131E+00 -.105E+00   0.155E-03 0.127E-01 -.130E-01
   -.166E-01 0.142E+00 -.173E+00   0.166E-01 -.118E+00 0.151E+00   0.997E-05 -.129E-01 0.217E-01
   0.125E-01 -.128E+00 0.155E+00   -.130E-01 0.104E+00 -.130E+00   0.678E-03 0.182E-01 -.183E-01
   -.696E-02 0.136E+00 -.141E+00   0.654E-02 -.112E+00 0.116E+00   0.502E-03 -.184E-01 0.194E-01
   -.117E-01 -.123E+00 0.162E+00   0.118E-01 0.987E-01 -.138E+00   0.482E-04 0.129E-01 -.127E-01
   0.121E-01 0.175E+00 -.145E+00   -.128E-01 -.150E+00 0.121E+00   0.695E-03 -.127E-01 0.222E-01
   -.156E+00 0.108E+00 -.803E-01   0.159E+00 -.113E+00 0.822E-01   -.224E-02 -.132E-01 0.153E-01
   0.197E-02 -.122E+00 0.119E+00   0.331E-02 0.131E+00 -.124E+00   -.412E-02 0.950E-02 0.147E-01
   0.526E-02 0.581E-01 -.800E-01   -.443E-02 -.607E-01 0.832E-01   -.883E-03 -.966E-03 -.518E-03
   0.515E-02 0.881E-02 -.580E-02   -.543E-02 -.729E-02 0.404E-02   0.000E+00 0.160E-02 -.162E-02
   0.692E-02 0.685E-01 -.679E-01   -.741E-02 -.701E-01 0.694E-01   0.284E-03 -.151E-01 0.153E-01
   -.127E-02 -.482E-01 0.555E-01   0.274E-02 0.487E-01 -.592E-01   -.100E-02 0.157E-01 0.137E-01
   0.250E-01 0.197E+00 0.237E-01   -.256E-01 -.203E+00 -.214E-01   0.853E-04 0.140E-02 0.233E-03
   0.493E-02 0.696E-02 -.763E-02   -.540E-02 -.544E-02 0.575E-02   0.000E+00 0.151E-02 -.154E-02
   -.170E-01 0.247E-01 -.693E-01   0.170E-01 -.270E-01 0.728E-01   0.203E-03 0.133E-01 -.144E-01
   -.195E-02 -.428E-01 0.574E-01   0.558E-03 0.458E-01 -.584E-01   0.118E-02 -.139E-01 -.155E-01
   -.152E-01 -.254E-01 -.203E+00   0.151E-01 0.233E-01 0.209E+00   -.853E-04 -.258E-03 -.139E-02
   0.500E-02 -.620E-01 0.610E-02   -.526E-02 0.653E-01 -.881E-02   -.128E-03 -.726E-03 0.986E-04
[...]
   0.208E+02 0.107E-02 0.139E-02   -.248E+02 -.113E-02 0.180E-02   0.403E+01 -.122E-03 -.364E-02
   -.400E-02 -.142E+02 -.140E+02   0.357E-02 0.171E+02 0.168E+02   0.432E-03 -.289E+01 -.284E+01
   -.118E-01 0.142E+02 0.140E+02   0.128E-01 -.170E+02 -.168E+02   -.578E-03 0.289E+01 0.284E+01
   -.208E+02 -.502E-02 -.116E-01   0.248E+02 0.508E-02 0.810E-02   -.403E+01 -.793E-04 0.366E-02
   0.208E+02 0.581E-02 -.408E-01   -.247E+02 -.946E-02 0.413E-01   0.402E+01 0.400E-02 -.412E-03
   -.119E-01 -.143E+02 -.140E+02   0.121E-01 0.171E+02 0.168E+02   -.494E-04 -.289E+01 -.284E+01
   0.184E-01 0.143E+02 0.140E+02   -.189E-01 -.171E+02 -.168E+02   0.839E-04 0.289E+01 0.284E+01
   -.207E+02 0.966E-01 0.117E+00   0.246E+02 -.977E-01 -.115E+00   -.403E+01 -.365E-02 -.130E-02
   0.208E+02 0.268E-02 0.138E-01   -.248E+02 -.316E-02 -.105E-01   0.403E+01 0.554E-03 -.356E-02
   0.494E-03 -.142E+02 -.140E+02   -.860E-03 0.171E+02 0.168E+02   0.484E-03 -.289E+01 -.284E+01
   -.440E-02 0.142E+02 0.140E+02   0.461E-02 -.171E+02 -.168E+02   0.163E-03 0.289E+01 0.284E+01
   -.208E+02 0.761E-02 0.167E-02   0.248E+02 -.771E-02 -.508E-02   -.403E+01 0.148E-03 0.350E-02
   0.208E+02 0.757E-02 -.725E-02   -.248E+02 -.113E-01 0.724E-02   0.402E+01 0.397E-02 0.592E-05
   0.107E-02 -.142E+02 -.140E+02   -.673E-03 0.171E+02 0.168E+02   0.216E-03 -.289E+01 -.284E+01
   -.176E-02 -.120E-02 -.580E-02   -.636E-12 0.213E-13 0.160E-12   -.796E-15 0.381E-03 -.388E-03

 POSITION                                       TOTAL-FORCE (eV/Angst)
     16.40398     15.39710      3.83409        -0.000506     -0.002448      0.006879
      0.00000      0.00000      0.00000         0.000000      0.016130     -0.016417
      2.73399      9.68158      5.75021        -0.000045     -0.049049      0.049938
      2.73399     13.51805      5.74652         0.000045      0.049031      0.038513
      0.00000      7.86646     11.49857        -0.000280     -0.002622      0.006045
      0.00000      7.80253      7.66266         0.000000      0.002360     -0.002402
      2.73397      2.15093     13.41471        -0.000632     -0.049683      0.050074
      2.73397      5.98741     13.41102         0.000056      0.048970      0.038510
     16.40398      3.96609      7.66632         0.000280     -0.005998      0.002728
     16.40398      3.90215      3.83041         0.000114      0.006083     -0.006078
      2.73399     13.58195      9.58246        -0.000064      0.039324     -0.039893
      2.73399      2.08704      9.57877        -0.000196     -0.039367     -0.048309
      0.00000     11.49671      0.00182         0.000506     -0.006835      0.002569
      0.00000     11.70290     11.49491        -0.000114      0.005970     -0.006189
      2.73399      5.78121      1.91796         0.000009      0.039253     -0.039967
      2.73399      9.61767      1.91427        -0.000088     -0.039420     -0.048387
      5.46799     15.39710      3.83406        -0.000243     -0.002631      0.006067
      5.46798      0.27190     15.32716         0.000022      0.002411     -0.002477
      8.20200      9.68158      5.75021         0.000000     -0.049030      0.049901
      8.20200     13.51805      5.74652         0.000015      0.049008      0.038493
      5.46798      7.86646     11.49857        -0.000166     -0.002549      0.005970
      5.46798      7.80253      7.66266         0.000052      0.002415     -0.002433
      8.20200      2.15094     13.41471         0.000000     -0.049107      0.049980
      8.20200      5.98741     13.41102         0.000018      0.049046      0.038533
      5.46798      3.96609      7.66632         0.000227     -0.005962      0.002666
      5.46799      3.90218      3.83041        -0.000045      0.005962     -0.006276
      8.20198     13.58195      9.58246         0.000080      0.039310     -0.039998
      8.20198      2.08704      9.57877        -0.000018     -0.039391     -0.048359
      5.46798     11.49673      0.00182         0.000241     -0.005994      0.002693
      5.46798     11.70292     11.49491         0.000091      0.005966     -0.006257
      8.20200      5.78121      1.91796        -0.000080      0.039300     -0.040009
      8.20198      9.61767      1.91427        -0.000015     -0.039350     -0.048322
     10.93599     15.39710      3.83406        -0.000241     -0.002587      0.006040
     10.93599      0.27190     15.32716        -0.000022      0.002434     -0.002454
     13.66998      9.68158      5.75021         0.000045     -0.049066      0.049921
     13.66998     13.51805      5.74652         0.000088      0.049074      0.038562
     10.93599      7.86646     11.49857        -0.000227     -0.002561      0.006008
     10.93599      7.80253      7.66266        -0.000052      0.002391     -0.002458
     13.66999      2.15094     13.41473         0.000632     -0.049191      0.050557
     13.66998      5.98741     13.41102         0.000196      0.048995      0.038510
     10.93599      3.96609      7.66632         0.000166     -0.005925      0.002654
     10.93599      3.90215      3.83039        -0.000091      0.006151     -0.006075
     13.66998     13.58195      9.58246        -0.000009      0.039269     -0.039951
     13.66999      2.08704      9.57877        -0.000056     -0.039367     -0.048284
     10.93597     11.49673      0.00182         0.000243     -0.006020      0.002738
     10.93597     11.70290     11.49489         0.000045      0.006170     -0.006072
     13.66998      5.78121      1.91796         0.000064      0.039194     -0.040021
     13.66998      9.61767      1.91427        -0.000045     -0.039370     -0.048345
      2.73401     13.45022      1.91456         0.000745      0.031197     -0.032166
      2.73399      1.94868      1.91764         0.000615     -0.031124     -0.036892
     16.40398     11.63512      7.66292        -0.000018     -0.001406      0.003637
      0.00000     11.56451      3.83381         0.000000      0.001236     -0.001258
      2.73399      5.91960      9.57906        -0.000173      0.031979     -0.032584
      2.73399      9.74939      9.58219         0.000091     -0.032209     -0.036936
     16.40398      4.10444     15.32742        -0.000473     -0.002457      0.003525
      0.00000      4.03387     11.49831         0.000000      0.001215     -0.001237
      2.73397      2.01922      5.74681         0.000115     -0.037131      0.037990
      2.73399      5.84902      5.74994        -0.000265      0.037283      0.031298
      0.00000      0.20411     11.49520         0.000473     -0.003481      0.002519
      0.00000     15.46488      7.66606        -0.000099      0.003663     -0.003603
[...]
     15.01430      5.88430      7.66450        -0.301042     -0.007487      0.000036
     12.32567      3.93412      5.74836         0.301212     -0.000115     -0.007586
     15.03699      2.03281      7.64615         0.000003     -0.211082     -0.214585
     15.03699     13.63616     11.51507        -0.000078      0.210835      0.208987
     12.28031      0.16881      9.58061        -0.301009     -0.000003      0.003192
     15.05964      2.11898     11.49673         0.300956      0.003392     -0.000152
     12.30300     15.54904     13.39454        -0.000250     -0.218031     -0.215933
     12.30300     11.55094      1.93443        -0.000318      0.212665      0.216228
     15.01415     13.41471      0.00000        -0.303210     -0.011694      0.000921
     12.32567     11.73487     13.41287         0.301508      0.000024     -0.007476
     15.03697      9.83355     15.31065         0.000148     -0.211176     -0.214361
     15.03699      5.83542      3.85057        -0.000145      0.210961      0.209046
     12.28031      7.69944      1.91612        -0.301084     -0.000032      0.003139
     15.05966      9.64962      3.83223         0.300838      0.003334     -0.000006
     12.30298      7.74830      5.73004        -0.000008     -0.218464     -0.216046
    total drift:                               -0.001759      0.000601     -0.007635

  FREE ENERGIE OF THE ION-ELECTRON SYSTEM (eV)
  free  energy   TOTEN  =     -1136.34571914 eV

  energy  without entropy=    -1136.34571914  energy(sigma->0) =    -1136.34571914

 writing wavefunctions

 total charge

[...]

 magnetization (x)

# of ion       s       p       d       tot
    1       -0.000  -0.000   0.000  -0.000
    2       -0.000  -0.000   0.000  -0.000
    3       -0.000  -0.000   0.000  -0.000
    4       -0.000  -0.000   0.000  -0.000
    5       -0.000  -0.000   0.000  -0.000
    6       -0.000  -0.000   0.000  -0.000
    7       -0.000  -0.000   0.000  -0.000
    8       -0.000  -0.000   0.000  -0.000
    9       -0.000  -0.000   0.000  -0.000
   10       -0.000  -0.000   0.000  -0.000
   11       -0.000  -0.000   0.000  -0.000
   12       -0.000  -0.000   0.000  -0.000
   13        0.000   0.000  -0.000   0.000
   14       -0.000  -0.000   0.000  -0.000
   15       -0.000  -0.000   0.000  -0.000
   16        0.000   0.000  -0.000   0.000
   17       -0.000  -0.000   0.000  -0.000
   18       -0.000  -0.000   0.000  -0.000
   19       -0.000  -0.000   0.000  -0.000
   20       -0.000  -0.000   0.000  -0.000
   21       -0.000  -0.000   0.000  -0.000
   22       -0.000  -0.000   0.000  -0.000
   23       -0.000  -0.000   0.000  -0.000
   24       -0.000  -0.000   0.000  -0.000
   25       -0.000  -0.000   0.000  -0.000
   26       -0.000  -0.000   0.000  -0.000
   27       -0.000  -0.000   0.000  -0.000
   28       -0.000  -0.000   0.000  -0.000
   29       -0.000  -0.000   0.000  -0.000
   30       -0.000  -0.000   0.000  -0.000
   31       -0.000  -0.000   0.000  -0.000
   32       -0.000  -0.000   0.000  -0.000
   33       -0.000  -0.000   0.000  -0.000
   34       -0.000  -0.000   0.000  -0.000
   35       -0.000  -0.000   0.000  -0.000
   36       -0.000  -0.000   0.000  -0.000
   37       -0.000  -0.000   0.000  -0.000
   38       -0.000  -0.000   0.000  -0.000
   39       -0.000  -0.000   0.000  -0.000
   40       -0.000  -0.000   0.000  -0.000
   41       -0.000  -0.000   0.000  -0.000
   42       -0.000  -0.000   0.000  -0.000
   43       -0.000  -0.000   0.000  -0.000
   44       -0.000  -0.000   0.000  -0.000
   45       -0.000  -0.000   0.000  -0.000
   46       -0.000  -0.000   0.000  -0.000
   47       -0.000  -0.000   0.000  -0.000
   48       -0.000  -0.000   0.000  -0.000
   49       -0.000  -0.000   0.000  -0.000
   50       -0.000  -0.000   0.000  -0.000
   51       -0.000  -0.000   0.000  -0.000
   52       -0.000  -0.000   0.000  -0.000
   53       -0.000  -0.000   0.000  -0.000
   54       -0.000  -0.000   0.000  -0.000
   55       -0.000  -0.000   0.000  -0.000
   56       -0.000  -0.000   0.000  -0.000
   57       -0.000  -0.000   0.000  -0.000
   58       -0.000  -0.000   0.000  -0.000
   59       -0.000  -0.000   0.000  -0.000
   60       -0.000  -0.000   0.000  -0.000
[...]
  178        0.000   0.000   0.000   0.000
  179        0.000   0.000   0.000   0.000
  180        0.000   0.000   0.000   0.000
  181        0.000   0.000   0.000   0.000
  182        0.000   0.000   0.000   0.000
  183        0.000   0.000   0.000   0.000
  184        0.000   0.000   0.000   0.000
  185       -0.000  -0.000   0.000  -0.000
  186        0.000  -0.000   0.000  -0.000
  187        0.000   0.000   0.000   0.000
  188       -0.000   0.000   0.000   0.000
  189        0.000   0.000   0.000   0.000
  190        0.000   0.000   0.000   0.000
  191        0.000   0.000   0.000   0.000
  192        0.000   0.000   0.000   0.000
tot         -0.002   0.001   0.001  -0.000