 vasp.5.4.4.18Apr17-6-g9f103f2a35 (build Dec 09 2021 16:20:36) complex

 executed on             LinuxIFC date 2022.01.30  21:33:16

 INCAR:
 POTCAR:    PAW_PBE Ga 08Apr2002
 POTCAR:    PAW_PBE N 08Apr2002
 POTCAR:    PAW_PBE C 08Apr2002
 POTCAR:    PAW_PBE Ga 08Apr2002
   VRHFIN =Ga: s2p1

   TITEL  = PAW_PBE Ga 08Apr2002
   POMASS =   69.723; ZVAL   =    3.000    mass and valenz
   ENMAX  =  134.678; ENMIN  =  101.009 eV

 POTCAR:    PAW_PBE N 08Apr2002
   VRHFIN =N: s2p3

[...]

 POTCAR:    PAW_PBE C 08Apr2002
   VRHFIN =C: s2p2

   TITEL  = PAW_PBE C 08Apr2002
   POMASS =   12.011; ZVAL   =    4.000    mass and valenz
   ENMAX  =  400.000; ENMIN  =  300.000 eV

  PAW_PBE Ga 08Apr2002                  :
  PAW_PBE N 08Apr2002                   :
  PAW_PBE C 08Apr2002                   :

 POSCAR: C_N1
  positions in direct lattice
  velocities in cartesian coordinates
 exchange correlation table for  LEXCH =        8
   RHO(1)=    0.500       N(1)  =     2000
   RHO(2)=  100.500       N(2)  =     4000

 ion  position               nearest neighbor table
   1  0.000  0.168  0.255-  67 1.96 113 1.96  65 1.96 128 1.96   8 3.16  54 3.16   6 3.16  49 3.18
                            17 3.18  51 3.18   3 3.18  59 3.20  11 3.20   4 3.24  50 3.27   2 3.27
   2  0.125  0.078  0.997-  74 1.93  69 1.94  80 1.97 128 2.03  15 3.13  12 3.15  28 3.16   5 3.16
                            21 3.17  11 3.18  18 3.19  50 3.19  17 3.23  20 3.24   1 3.27   4 3.28
   3  0.124  0.417  0.251-  67 1.95  73 1.95  83 1.95  66 1.96   4 3.17  51 3.17  20 3.18  14 3.18
                            24 3.18   1 3.18   9 3.19   8 3.19  10 3.19  17 3.19  25 3.19  19 3.20
   4  0.000  0.337  1.000- 114 1.96  66 1.96 128 1.96  71 1.97  55 3.17   7 3.17  58 3.17  10 3.17
                            51 3.17   3 3.17   5 3.18  20 3.18  52 3.18   1 3.24  50 3.28   2 3.28
   5  0.000  0.168  0.752-  71 1.95 117 1.95  69 1.95  68 1.96  50 3.16   2 3.16   8 3.17   4 3.18
                            54 3.18   6 3.18  55 3.19   7 3.19  21 3.20  53 3.20  63 3.22  15 3.22
   6  0.125  0.083  0.502-  65 1.95  78 1.95  84 1.95  68 1.95  15 3.16   1 3.16  21 3.16   5 3.18
                            17 3.18  11 3.19  22 3.19  32 3.19  54 3.19  16 3.19  24 3.19   8 3.20
   7  0.125  0.417  0.750-  71 1.94  77 1.95  87 1.95  70 1.95   8 3.16   4 3.17  20 3.17  14 3.17
                            24 3.18  29 3.18  13 3.18  10 3.18  23 3.19   5 3.19  21 3.20  55 3.20
   8  0.000  0.334  0.503-  67 1.94 118 1.95  70 1.95  68 1.95  55 3.16   7 3.16   1 3.16   5 3.17
                            62 3.18  14 3.18  51 3.19   3 3.19  56 3.19  24 3.19  54 3.20   6 3.20
   9  0.000  0.667  0.251-  75 1.95 121 1.95  73 1.95  72 1.96  12 3.17  16 3.17  62 3.18  14 3.18
                            58 3.18  10 3.18  51 3.19   3 3.19  25 3.19  57 3.19  59 3.20  11 3.20
  10  0.125  0.585  0.001-  66 1.93  72 1.95  88 1.95  77 1.96  28 3.17  12 3.17  25 3.17   4 3.17
                            29 3.18   9 3.18  13 3.18   7 3.18  26 3.19   3 3.19  20 3.19  58 3.20
  11  0.125  0.917  0.251-  65 1.94  75 1.95  91 1.95  74 1.96  16 3.17  32 3.17  17 3.18   2 3.18
                            12 3.19   6 3.19  27 3.19  59 3.19   9 3.20  28 3.20   1 3.20  25 3.20
  12  0.000  0.832  0.001-  72 1.94 122 1.95  74 1.95  79 1.96  50 3.15   2 3.15   9 3.17  58 3.17
                            10 3.17  13 3.18  59 3.19  11 3.19  63 3.19  15 3.19  60 3.20  28 3.20
  13  0.000  0.667  0.750- 125 1.95  77 1.95  79 1.95  76 1.96  12 3.18  62 3.18  14 3.18  58 3.18
                            10 3.18  63 3.18  15 3.18  16 3.18  55 3.18   7 3.18  29 3.19  61 3.19
  14  0.125  0.584  0.500-  70 1.94  76 1.95  92 1.95  73 1.95   7 3.17  25 3.18   3 3.18   9 3.18
                            29 3.18  13 3.18   8 3.18  16 3.19  32 3.19  24 3.19  30 3.19  62 3.19
  15  0.125  0.915  0.750-  69 1.95  79 1.95  78 1.95  95 1.95   2 3.13   6 3.16  32 3.17  16 3.17
                            13 3.18  29 3.18  12 3.19  28 3.19  31 3.19  63 3.19  21 3.21   5 3.22
  16  0.000  0.833  0.500-  76 1.95 126 1.95  78 1.95  75 1.95   9 3.17  63 3.17  15 3.17  59 3.17
                            11 3.17  13 3.18  62 3.19  14 3.19  32 3.19  64 3.19  54 3.19   6 3.19
  17  0.249  0.166  0.251-  65 1.94  83 1.95  81 1.95  80 1.96  24 3.17  22 3.18  11 3.18   1 3.18
                             6 3.18  20 3.19  18 3.19   3 3.19  27 3.20  19 3.20  33 3.20   2 3.23
  18  0.375  0.083  0.000-  90 1.94  85 1.95  96 1.96  80 1.97  21 3.18  31 3.18  27 3.18  37 3.18
                             2 3.19  33 3.19  28 3.19  17 3.19  44 3.19  36 3.20  34 3.20  20 3.20
  19  0.375  0.417  0.251-  83 1.95  89 1.95  99 1.95  82 1.96  24 3.17  26 3.18  40 3.18  30 3.18
                            36 3.18  20 3.18  33 3.19  25 3.19  41 3.19  35 3.19   3 3.20  17 3.20
  20  0.249  0.334  0.001-  66 1.94  82 1.95  87 1.96  80 1.96   7 3.17   3 3.18   4 3.18  19 3.18
                            21 3.18  23 3.19  17 3.19  10 3.19  26 3.19  18 3.20  36 3.20   2 3.24
  21  0.250  0.167  0.750-  87 1.95  69 1.95  85 1.95  84 1.95   6 3.16   2 3.17  22 3.18  18 3.18
                            24 3.18  20 3.18  23 3.18  37 3.19  31 3.19   7 3.20   5 3.20  15 3.21
  22  0.375  0.083  0.500-  84 1.95  94 1.95 100 1.95  81 1.96  33 3.17  17 3.18  27 3.18  21 3.18
                            37 3.18  31 3.18   6 3.19  38 3.19  40 3.19  48 3.19  32 3.19  24 3.19
  23  0.375  0.417  0.751-  93 1.95  87 1.95 103 1.95  86 1.96  26 3.18  36 3.18  40 3.18  30 3.18
                            24 3.18  21 3.18  20 3.19   7 3.19  29 3.19  45 3.19  37 3.19  39 3.19
  24  0.250  0.334  0.500-  70 1.95  84 1.95  86 1.95  83 1.96  19 3.17  17 3.17   3 3.18  21 3.18
                             7 3.18  23 3.18  30 3.19  14 3.19  40 3.19   8 3.19  22 3.19   6 3.19
  25  0.250  0.667  0.251-  73 1.95  91 1.95  89 1.95  88 1.96  10 3.17  28 3.18  14 3.18  32 3.18
                            30 3.18  26 3.18  19 3.19  41 3.19  27 3.19   9 3.19   3 3.19  11 3.20
  26  0.375  0.583  0.001-  88 1.94  82 1.95 104 1.95  93 1.96  19 3.18  23 3.18  41 3.18  45 3.18
                            28 3.18  25 3.18  29 3.18  36 3.18  42 3.19  10 3.19  20 3.19  44 3.19
  27  0.375  0.917  0.251-  91 1.95  81 1.95 107 1.95  90 1.96  32 3.17  22 3.18  48 3.18  28 3.18
                            18 3.18  44 3.18  11 3.19  25 3.19  43 3.19  41 3.19  33 3.19  17 3.20
  28  0.251  0.832  0.000-  88 1.94  74 1.95  90 1.95  95 1.96   2 3.16  10 3.17  29 3.17  25 3.18
                            31 3.18  27 3.18  44 3.18  26 3.18  18 3.19  15 3.19  11 3.20  12 3.20
  29  0.250  0.667  0.750-  77 1.95  95 1.95  93 1.95  92 1.95  28 3.17  30 3.17  10 3.18  14 3.18
                            32 3.18  15 3.18   7 3.18  26 3.18  45 3.19  23 3.19  31 3.19  13 3.19
  30  0.375  0.583  0.501-  86 1.95  92 1.95 108 1.95  89 1.96  29 3.17  41 3.18  25 3.18  45 3.18
                            23 3.18  19 3.18  24 3.19  32 3.19  40 3.19  46 3.19  48 3.19  14 3.19
  31  0.375  0.917  0.750-  95 1.95 111 1.95  85 1.95  94 1.96  48 3.18  28 3.18  18 3.18  32 3.18
                            22 3.18  44 3.18  47 3.19  29 3.19  45 3.19  15 3.19  37 3.19  21 3.19
  32  0.250  0.833  0.500-  92 1.95  78 1.95  94 1.95  91 1.95  15 3.17  27 3.17  11 3.17  25 3.18
                            29 3.18  31 3.18  14 3.19  30 3.19  48 3.19   6 3.19  22 3.19  16 3.19
  33  0.500  0.167  0.251-  99 1.95  81 1.95  97 1.95  96 1.96  22 3.17  38 3.17  40 3.18  36 3.18
                            18 3.19  34 3.19  19 3.19  35 3.19  27 3.19  43 3.19  17 3.20  49 3.20
  34  0.625  0.083  0.000- 106 1.94 101 1.95  96 1.96 112 1.97  53 3.18  47 3.18  43 3.18  37 3.18
                            50 3.19  33 3.19  60 3.19  49 3.19  44 3.19  36 3.20  18 3.20  52 3.20
  35  0.625  0.417  0.251- 115 1.95 105 1.95  99 1.95  98 1.96  56 3.17  42 3.18  40 3.18  46 3.18
                            36 3.18  52 3.18  33 3.19  57 3.19  41 3.19  19 3.19  51 3.20  49 3.20
  36  0.500  0.334  0.000-  82 1.95  98 1.95  96 1.95 103 1.96  23 3.18  39 3.18  37 3.18  19 3.18
                            35 3.18  33 3.18  26 3.18  42 3.18  18 3.20  34 3.20  20 3.20  52 3.20
  37  0.500  0.167  0.751- 103 1.95  85 1.95 101 1.95 100 1.96  40 3.18  36 3.18  22 3.18  38 3.18
                            18 3.18  34 3.18  21 3.19  53 3.19  23 3.19  39 3.19  31 3.19  47 3.19
  38  0.625  0.083  0.500- 116 1.95 110 1.95 100 1.95  97 1.96  33 3.17  49 3.18  43 3.18  53 3.18
                            37 3.18  47 3.18  54 3.19  22 3.19  40 3.19  48 3.19  64 3.19  56 3.19
  39  0.625  0.417  0.751- 109 1.95 119 1.95 103 1.95 102 1.96  42 3.18  36 3.18  40 3.18  46 3.18
                            56 3.18  53 3.18  52 3.19  55 3.19  61 3.19  45 3.19  37 3.19  23 3.19
  40  0.500  0.333  0.501-  86 1.95 102 1.95 100 1.95  99 1.96  33 3.18  23 3.18  39 3.18  37 3.18
                            19 3.18  35 3.18  30 3.19  46 3.19  24 3.19  56 3.19  22 3.19  38 3.19
  41  0.500  0.667  0.251-  89 1.95 105 1.95 107 1.95 104 1.96  30 3.18  46 3.18  48 3.18  26 3.18
                            42 3.18  44 3.18  25 3.19  57 3.19  19 3.19  35 3.19  27 3.19  43 3.19
  42  0.625  0.583  0.001- 120 1.94  98 1.95 104 1.95 109 1.96  35 3.18  39 3.18  41 3.18  45 3.18
                            60 3.18  57 3.18  61 3.18  36 3.18  26 3.19  58 3.19  52 3.19  44 3.19
  43  0.625  0.917  0.251- 123 1.95  97 1.95 107 1.95 106 1.96  64 3.17  38 3.18  48 3.18  60 3.18
                            34 3.18  44 3.18  59 3.19  57 3.19  27 3.19  41 3.19  33 3.19  49 3.20
  44  0.500  0.833  0.001- 104 1.95  90 1.95 106 1.95 111 1.96  45 3.18  28 3.18  60 3.18  41 3.18
                            31 3.18  47 3.18  27 3.18  43 3.18  18 3.19  34 3.19  26 3.19  42 3.19
  45  0.500  0.667  0.751-  93 1.95 109 1.95 111 1.95 108 1.96  30 3.18  46 3.18  44 3.18  48 3.18
                            26 3.18  42 3.18  29 3.19  61 3.19  23 3.19  39 3.19  31 3.19  47 3.19
  46  0.625  0.583  0.501- 102 1.95 124 1.95 108 1.95 105 1.96  61 3.17  41 3.18  57 3.18  45 3.18
                            39 3.18  35 3.18  56 3.19  64 3.19  40 3.19  30 3.19  48 3.19  62 3.19
  47  0.625  0.917  0.750- 127 1.95 111 1.95 101 1.95 110 1.96  48 3.18  60 3.18  34 3.18  64 3.18
                            38 3.18  44 3.18  31 3.19  61 3.19  45 3.19  63 3.19  37 3.19  53 3.19
  48  0.500  0.833  0.501- 108 1.95  94 1.95 110 1.95 107 1.96  31 3.18  47 3.18  27 3.18  43 3.18
                            41 3.18  45 3.18  32 3.19  64 3.19  30 3.19  46 3.19  22 3.19  38 3.19
  49  0.751  0.166  0.251- 113 1.94 115 1.95  97 1.95 112 1.96  56 3.17  38 3.18  59 3.18   1 3.18
                            54 3.18  52 3.19  34 3.19  51 3.19  43 3.20  35 3.20  33 3.20  50 3.23
  50  0.875  0.078  0.997- 122 1.93 117 1.94 112 1.97 128 2.03  63 3.13  12 3.15  60 3.16   5 3.16
                            53 3.17  59 3.18  34 3.19   2 3.19  49 3.23  52 3.24   1 3.27   4 3.28
  51  0.876  0.417  0.251-  67 1.95 121 1.95 115 1.95 114 1.96   4 3.17   3 3.17  52 3.18  62 3.18
                            56 3.18   1 3.18   9 3.19   8 3.19  58 3.19  49 3.19  57 3.19  35 3.20
[...]
   35.186723    0.776162    0.781686    0.786870    0.000000   -0.000202    0.000000
   35.545771    0.781159    0.786571    0.791623    0.000000   -0.000197    0.000000

  frequency dependent IMAGINARY DIELECTRIC FUNCTION (independent particle, no local field effects) current-current (2nd set in vasprun.xml)
     E(ev)      X         Y         Z        XY        YZ        ZX
    0.000000   17.662125   17.260245   17.011739    0.000000   -0.480612    0.000000
    0.359048    1.777676    1.738720    1.714082    0.000000   -0.048087    0.000000
    0.718096    0.907228    0.889721    0.877752    0.000000   -0.024095    0.000000
    1.077145    0.629106    0.618905    0.611340    0.000000   -0.016178    0.000000
    1.436193    0.533733    0.499780    0.493815    0.000000   -0.012790    0.000000
    1.795241    0.432894    0.462027    0.460154    0.000000   -0.011035    0.000000
    2.154289    0.407816    0.692013    0.725464    0.000000   -0.011190    0.000000
    2.513337    0.445553    0.483740    0.461216    0.000000   -0.008539    0.000000
    2.872386    0.569411    0.720867    0.714854    0.000000   -0.007703    0.000000
    3.231434    0.876380    1.350670    1.406146    0.000000    0.012087    0.000000
    3.590482    6.160441    7.219295    8.623909    0.000000    0.050005    0.000000
    3.949530    1.534117    2.143264    2.205791    0.000000   -0.114801    0.000000
    4.308578    0.637397    0.483892    0.493491    0.000000   -0.000751    0.000000
    4.667626    0.449009    0.341805    0.344650    0.000000   -0.003539    0.000000
    5.026675    0.347257    0.294794    0.279382    0.000000   -0.004078    0.000000
    5.385723    0.364486    0.335752    0.310528    0.000000   -0.003399    0.000000
    5.744771    0.540950    0.521513    0.559221    0.000000   -0.005070    0.000000
    6.103819    0.810510    1.080026    1.369671    0.000000   -0.015457    0.000000
    6.462867    2.847364    4.872728    4.031680    0.000000    0.032198    0.000000
    6.821916    5.319760    3.847206    3.221181    0.000000   -0.010997    0.000000
    7.180964    4.064778    3.621679    1.224851    0.000000    0.009177    0.000000
    7.540012    1.782609    1.676641    1.026850    0.000000    0.004070    0.000000
    7.899060    3.244472    2.800060    3.081734    0.000000    0.025671    0.000000
    8.258108   12.308629    9.014227    4.878931    0.000000   -0.002944    0.000000
    8.617157    8.374527    5.386798    3.483585    0.000000   -0.041444    0.000000
    8.976205    3.763329    5.007268    4.505762    0.000000    0.057866    0.000000
    9.335253    5.588396    6.580408   15.462458    0.000000   -0.008305    0.000000
    9.694301   11.915011   12.193754   14.652003    0.000000   -0.071194    0.000000
   10.053349    7.097481    4.317258    3.399648    0.000000   -0.014444    0.000000
   10.412398    1.711510    2.748328    2.060343    0.000000   -0.021375    0.000000
   10.771446    1.649217    2.047110    1.580213    0.000000   -0.019634    0.000000
   11.130494    3.887961    3.715074    2.439690    0.000000    0.017221    0.000000
   11.489542    3.766243    5.619035    3.205535    0.000000    0.052848    0.000000
   11.848590    5.816573    5.569150    6.206629    0.000000   -0.033895    0.000000
   12.207638    3.678729    4.191071    3.961232    0.000000    0.055965    0.000000
   12.566687    3.242998    3.404085    3.031013    0.000000    0.017257    0.000000
   12.925735    2.700665    2.257483    2.413146    0.000000   -0.055140    0.000000
   13.284783    2.151578    2.105179    2.240832    0.000000   -0.023278    0.000000
   13.643831    1.308056    1.415923    2.237438    0.000000   -0.050493    0.000000
   14.002879    1.607482    0.879328    1.370583    0.000000    0.019974    0.000000
   14.361928    1.131817    1.056467    0.861976    0.000000    0.024338    0.000000
   14.720976    0.688836    1.170334    0.979052    0.000000   -0.020167    0.000000
   15.080024    0.851255    0.755710    0.654040    0.000000   -0.008797    0.000000
   15.439072    0.581719    0.577779    0.374333    0.000000    0.002854    0.000000
   15.798120    0.494391    0.576564    0.262477    0.000000    0.001629    0.000000
   16.157169    0.381510    0.560651    0.254761    0.000000    0.005022    0.000000
   16.516217    0.454796    0.450693    0.204998    0.000000    0.004473    0.000000
   16.875265    0.277519    0.296739    0.188971    0.000000    0.011725    0.000000
   17.234313    0.155479    0.130370    0.149405    0.000000    0.005433    0.000000
   17.593361    0.113559    0.077270    0.095459    0.000000    0.001257    0.000000
   17.952409    0.056852    0.043780    0.049829    0.000000    0.002923    0.000000
   18.311458    0.028775    0.026121    0.030212    0.000000    0.001137    0.000000
   18.670506    0.015850    0.016617    0.021466    0.000000    0.001247    0.000000
   19.029554    0.010901    0.010961    0.019068    0.000000    0.001461    0.000000
   19.388602    0.009641    0.008069    0.008656    0.000000    0.001393    0.000000
   19.747650    0.006650    0.006532    0.006226    0.000000    0.001178    0.000000
   20.106699    0.005812    0.005818    0.005818    0.000000    0.001132    0.000000
   20.465747    0.005874    0.006258    0.004849    0.000000    0.001024    0.000000
   20.824795    0.007699    0.008486    0.004700    0.000000    0.000870    0.000000
   21.183843    0.009864    0.010266    0.005828    0.000000    0.000774    0.000000
[...]
   30.519096    0.000361    0.000363    0.000335    0.000000    0.000178    0.000000
   30.878144    0.000330    0.000331    0.000308    0.000000    0.000170    0.000000
   31.237193    0.000304    0.000305    0.000284    0.000000    0.000163    0.000000
   31.596241    0.000281    0.000281    0.000263    0.000000    0.000156    0.000000
   31.955289    0.000261    0.000261    0.000244    0.000000    0.000150    0.000000
   32.314337    0.000242    0.000243    0.000227    0.000000    0.000144    0.000000
   32.673385    0.000226    0.000226    0.000212    0.000000    0.000138    0.000000
   33.032433    0.000211    0.000211    0.000198    0.000000    0.000133    0.000000
   33.391482    0.000197    0.000197    0.000186    0.000000    0.000128    0.000000
   33.750530    0.000185    0.000185    0.000174    0.000000    0.000123    0.000000
   34.109578    0.000173    0.000173    0.000163    0.000000    0.000119    0.000000
   34.468626    0.000163    0.000163    0.000153    0.000000    0.000114    0.000000
   34.827674    0.000153    0.000153    0.000144    0.000000    0.000110    0.000000
   35.186723    0.000144    0.000144    0.000136    0.000000    0.000106    0.000000
   35.545771    0.000136    0.000136    0.000128    0.000000    0.000103    0.000000

  frequency dependent      REAL DIELECTRIC FUNCTION (independent particle, no local field effects) current-current (2nd set in vasprun.xml)
     E(ev)        X           Y           Z          XY          YZ          ZX
    0.000000    4.167486    4.094988    4.050314    0.000000    0.004481    0.000000
    0.359048    4.177662    4.106251    4.061765    0.000000    0.004491    0.000000
    0.718096    4.209611    4.141660    4.097777    0.000000    0.004509    0.000000
    1.077145    4.267810    4.205662    4.162873    0.000000    0.004473    0.000000
    1.436193    4.342748    4.309690    4.268309    0.000000    0.004023    0.000000
    1.795241    4.448003    4.467950    4.444877    0.000000    0.009088    0.000000
    2.154289    4.629940    4.637833    4.503076    0.000000   -0.005150    0.000000
    2.513337    4.895141    4.797809    4.794075    0.000000    0.013961    0.000000
    2.872386    5.245922    5.368667    5.422554    0.000000    0.021334    0.000000
    3.231434    6.276858    6.653369    6.893111    0.000000    0.028074    0.000000
    3.590482    7.764832    1.707116    1.539270    0.000000   -0.063672    0.000000
    3.949530    1.078858    2.166300    1.784025    0.000000    0.059204    0.000000
    4.308578    3.117306    2.674239    2.304412    0.000000    0.005094    0.000000
    4.667626    3.663857    3.460454    3.178889    0.000000   -0.001871    0.000000
    5.026675    4.289624    4.066612    3.735829    0.000000    0.005108    0.000000
    5.385723    4.902759    4.653793    4.298639    0.000000    0.004772    0.000000
    5.744771    5.578443    5.439090    5.015259    0.000000    0.008664    0.000000
    6.103819    6.765854    6.668907    6.229681    0.000000    0.025641    0.000000
    6.462867    9.477884    7.998566    4.777018    0.000000   -0.066197    0.000000
    6.821916    2.079713    2.312960    3.975230    0.000000   -0.020335    0.000000
    7.180964    4.774438    4.458519    4.146262    0.000000    0.004272    0.000000
    7.540012    5.158386    4.366824    5.896265    0.000000    0.003394    0.000000
    7.899060    9.571671    8.033267    8.975092    0.000000    0.008905    0.000000
    8.258108    6.361423    2.898634    3.181164    0.000000   -0.040864    0.000000
    8.617157   -4.817330    1.022479    4.337191    0.000000    0.045583    0.000000
    8.976205    1.274164    2.868788    9.652844    0.000000   -0.044375    0.000000
    9.335253    3.477793    3.760677    9.440913    0.000000    0.068288    0.000000
    9.694301    0.520328    0.439472   -6.055463    0.000000   -0.093683    0.000000
   10.053349   -4.756099   -2.324499   -6.068539    0.000000   -0.020836    0.000000
   10.412398   -2.492666   -0.605584   -3.091550    0.000000    0.026659    0.000000
   10.771446    0.160282    0.018205   -0.877734    0.000000    0.021646    0.000000
   11.130494    1.232403    1.236555    0.780218    0.000000    0.039999    0.000000
   11.489542    0.106098    1.758741    0.672174    0.000000    0.016843    0.000000
   11.848590   -0.217391   -0.607575    0.310556    0.000000   -0.028566    0.000000
   12.207638   -2.289671   -3.021779   -2.918314    0.000000   -0.013825    0.000000
   12.566687   -2.389362   -2.901392   -2.220797    0.000000   -0.041321    0.000000
   12.925735   -2.078338   -2.300398   -1.846961    0.000000   -0.021070    0.000000
   13.284783   -2.441353   -2.164250   -1.978632    0.000000   -0.020020    0.000000
   13.643831   -1.935260   -2.235435   -1.848422    0.000000    0.061468    0.000000
   14.002879   -1.582290   -1.544416   -2.132472    0.000000    0.011773    0.000000
   14.361928   -1.868543   -1.269255   -1.641237    0.000000    0.015502    0.000000
   14.720976   -1.227285   -1.217430   -1.476232    0.000000   -0.000673    0.000000
   15.080024   -1.401884   -1.385534   -1.402740    0.000000    0.021134    0.000000
   15.439072   -1.133520   -1.066474   -1.247792    0.000000    0.010040    0.000000
   15.798120   -0.958397   -0.795553   -0.946183    0.000000    0.006657    0.000000
   16.157169   -0.826690   -0.844247   -0.765345    0.000000    0.001480    0.000000
   16.516217   -0.809935   -0.750085   -0.638740    0.000000    0.001533    0.000000
   16.875265   -0.668411   -0.783760   -0.515188    0.000000    0.000119    0.000000
   17.234313   -0.601203   -0.610315   -0.447524    0.000000   -0.000282    0.000000
   17.593361   -0.458513   -0.452288   -0.371303    0.000000    0.001428    0.000000
   17.952409   -0.361170   -0.329799   -0.261837    0.000000   -0.001829    0.000000
   18.311458   -0.243229   -0.220771   -0.168515    0.000000   -0.002016    0.000000
   18.670506   -0.150264   -0.130283   -0.081648    0.000000   -0.001177    0.000000
   19.029554   -0.069213   -0.052292   -0.016483    0.000000   -0.000584    0.000000
   19.388602   -0.000997    0.015923    0.045448    0.000000   -0.001060    0.000000
   19.747650    0.059093    0.075986    0.103978    0.000000   -0.000844    0.000000
   20.106699    0.113656    0.129857    0.154624    0.000000   -0.000884    0.000000
   20.465747    0.162700    0.178427    0.200394    0.000000   -0.000827    0.000000
   20.824795    0.209729    0.224581    0.242155    0.000000   -0.000754    0.000000
   21.183843    0.239164    0.253070    0.280705    0.000000   -0.000701    0.000000
[...]
   30.519096    0.690337    0.697667    0.705327    0.000000   -0.000281    0.000000
   30.878144    0.698721    0.705885    0.713279    0.000000   -0.000273    0.000000
   31.237193    0.706731    0.713734    0.720881    0.000000   -0.000266    0.000000
   31.596241    0.714396    0.721242    0.728158    0.000000   -0.000259    0.000000
   31.955289    0.721739    0.728433    0.735132    0.000000   -0.000253    0.000000
   32.314337    0.728780    0.735327    0.741822    0.000000   -0.000246    0.000000
   32.673385    0.735539    0.741944    0.748245    0.000000   -0.000240    0.000000
   33.032433    0.742032    0.748299    0.754416    0.000000   -0.000234    0.000000
   33.391482    0.748275    0.754408    0.760350    0.000000   -0.000229    0.000000
   33.750530    0.754281    0.760284    0.766060    0.000000   -0.000223    0.000000
   34.109578    0.760063    0.765940    0.771558    0.000000   -0.000218    0.000000
   34.468626    0.765632    0.771388    0.776855    0.000000   -0.000213    0.000000
   34.827674    0.771001    0.776639    0.781961    0.000000   -0.000208    0.000000
   35.186723    0.776179    0.781702    0.786886    0.000000   -0.000204    0.000000
   35.545771    0.781175    0.786587    0.791639    0.000000   -0.000199    0.000000

 The outermost node in the dielectric function lies at epsilon=  19.3

 total charge

[...]

 magnetization (x)

# of ion       s       p       d       tot
    1       -0.006  -0.012   0.011  -0.007
    2        0.003   0.070   0.026   0.100
    3       -0.000  -0.000  -0.000  -0.000
    4       -0.006  -0.011   0.011  -0.006
    5       -0.001   0.001   0.001   0.001
    6       -0.000   0.000   0.001   0.000
    7       -0.000  -0.000  -0.000  -0.000
    8       -0.000  -0.000  -0.000  -0.001
    9       -0.000  -0.000   0.000  -0.000
   10       -0.000   0.001   0.000   0.001
   11       -0.000  -0.000   0.000  -0.000
   12       -0.000  -0.001   0.000  -0.001
   13       -0.000  -0.000  -0.000  -0.000
   14       -0.000  -0.000   0.000  -0.000
   15       -0.000   0.000   0.000   0.001
   16       -0.000   0.000  -0.000   0.000
   17       -0.001  -0.002   0.001  -0.003
   18       -0.002   0.006   0.006   0.009
   19       -0.000  -0.000   0.000  -0.000
   20       -0.001  -0.002   0.001  -0.003
   21       -0.000   0.001   0.001   0.001
   22       -0.000  -0.000   0.000  -0.000
   23       -0.000  -0.000  -0.000  -0.000
   24       -0.000  -0.000  -0.000  -0.000
   25       -0.000  -0.000   0.000  -0.000
   26       -0.000  -0.000   0.000  -0.000
   27       -0.000  -0.000   0.000  -0.000
   28        0.000   0.001   0.001   0.002
   29       -0.000  -0.000   0.000  -0.000
   30       -0.000  -0.000   0.000  -0.000
   31       -0.000  -0.000   0.000  -0.000
   32       -0.000  -0.000   0.000  -0.000
   33       -0.000  -0.001   0.000  -0.001
   34       -0.002   0.006   0.006   0.009
   35       -0.000  -0.000   0.000  -0.000
   36       -0.001  -0.001   0.000  -0.001
   37       -0.000  -0.000   0.000  -0.000
   38       -0.000  -0.000   0.000  -0.000
   39       -0.000  -0.000  -0.000  -0.000
   40       -0.000  -0.000   0.000  -0.000
   41       -0.000  -0.000   0.000  -0.000
   42       -0.000  -0.000   0.000  -0.000
   43       -0.000  -0.000   0.000  -0.000
   44       -0.000   0.000   0.000   0.000
   45       -0.000  -0.000   0.000  -0.000
   46       -0.000  -0.000   0.000  -0.000
   47       -0.000  -0.000   0.000  -0.000
   48       -0.000  -0.000   0.000  -0.000
   49       -0.001  -0.002   0.001  -0.003
   50        0.003   0.071   0.026   0.100
   51       -0.000  -0.000  -0.000  -0.000
   52       -0.001  -0.002   0.001  -0.003
   53       -0.000   0.001   0.001   0.001
   54       -0.000   0.000   0.001   0.000
   55       -0.000  -0.000  -0.000  -0.000
   56       -0.000  -0.000  -0.000  -0.000
   57       -0.000  -0.000   0.000  -0.000
   58       -0.000   0.001   0.000   0.001
   59       -0.000  -0.000   0.000  -0.000
   60        0.000   0.001   0.001   0.002
[...]
  114        0.001   0.010   0.000   0.010
  115       -0.000  -0.000   0.000  -0.000
  116        0.000   0.001   0.000   0.001
  117        0.000   0.013   0.000   0.013
  118       -0.000  -0.000   0.000  -0.000
  119       -0.000  -0.000   0.000  -0.000
  120        0.000   0.001   0.000   0.001
  121       -0.000   0.000   0.000   0.000
  122        0.000   0.010   0.000   0.010
  123        0.000   0.001   0.000   0.001
  124        0.000   0.000   0.000   0.000
  125       -0.000   0.000   0.000   0.000
  126        0.000   0.001   0.000   0.001
  127        0.000   0.001   0.000   0.001
  128        0.014   0.281   0.000   0.295
tot          0.006   0.692   0.098   0.796